**
** ABAQUS Input Deck Generated by HyperMesh Version  : 2019.1.0.20
** Generated using HyperMesh-Abaqus Template Version : 2019.1.0.20
**
**   Template:  ABAQUS/STANDARD 3D
**
*Part, name=PART-1-1
*NODE
         1,  2.127974088E-15,  -0.974065931336
         2,  0.2581626372515,  -1.128261020266
         3,  0.527649948144 ,  -1.262354182652
         4,  0.796789704992 ,  -1.397032621843
         5,  1.0791191827166,  -1.500894893375
         6,  1.3686846857585,  -1.582996302513
         7,  1.6613737520673,  -1.653268062742
         8,  1.956222460483 ,  -1.713772196751
         9,  2.2528515836183,  -1.764649268386
        10,  2.5508016303433,  -1.807307492665
        11,  2.8495157005434,  -1.844269417283
        12,  3.1487771953314,  -1.876562193268
        13,  3.4484503493899,  -1.904783656638
        14,  3.7484115013783,  -1.929689206608
        15,  4.0485923768147,  -1.951881185988
        16,  4.3489458223871,  -1.971685669007
        17,  4.649438570616 ,  -1.989214249662
        18,  4.9500424932609,  -2.004421290327
        19,  5.2507646453643,  -2.017170924723
        20,  5.5515947087788,  -2.027337745588
        21,  5.852495268008 ,  -2.034929759336
        22,  6.1534429402476,  -2.040166768457
        23,  6.4544152502414,  -2.043452819865
        24,  6.7554117715415,  -2.045242876966
        25,  7.0564161440562,  -2.045896591301
        26,  7.357415310564 ,  -2.045624006619
        27,  7.6584098734796,  -2.044498728684
        28,  7.9594040915757,  -2.042483338108
        29,  8.2603910735489,  -2.039461623671
        30,  8.5613610103013,  -2.035305414947
        31,  8.8623085134902,  -2.029975626114
        32,  9.1632328404275,  -2.023582131872
        33,  9.464138293538 ,  -2.016345108593
        34,  9.7650411279523,  -2.008498240259
        35,  10.065928917328,  -2.00022049567 
        36,  10.366794910282,  -1.991621459925
        37,  10.667669678831,  -1.982757502309
        38,  10.96853278666 ,  -1.973654549756
        39,  11.269384503128,  -1.964318282153
        40,  11.57023442614 ,  -1.954741296148
        41,  11.87106957234 ,  -1.944908062032
        42,  12.171897031426,  -1.934795759897
        43,  12.472715317991,  -1.924376496711
        44,  12.773521681002,  -1.913618120144
        45,  13.074321563574,  -1.90248540413 
        46,  13.375100407172,  -1.890943527676
        47,  13.675859314324,  -1.878959190746
        48,  13.976603908966,  -1.866503278227
        49,  14.277321394247,  -1.853553932778
        50,  14.578018152504,  -1.840097140204
        51,  14.87869436397 ,  -1.826130085934
        52,  15.179343006605,  -1.811662890122
        53,  15.47996909045 ,  -1.796717947641
        54,  15.780572067053,  -1.78132934198 
        55,  16.081158158675,  -1.765539003124
        56,  16.381720481415,  -1.74939301784 
        57,  16.682269885031,  -1.73293471184 
        58,  16.982803842686,  -1.7162025474  
        59,  17.283319988453,  -1.699228609208
        60,  17.583828559847,  -1.682038263447
        61,  17.884324336404,  -1.664652503108
        62,  18.184809908692,  -1.647087596115
        63,  18.485286925912,  -1.629356643765
        64,  18.785752664332,  -1.611470866953
        65,  19.08621122334 ,  -1.593439953237
        66,  19.386661167496,  -1.575273842465
        67,  19.687103710984,  -1.556983428873
        68,  19.987538581296,  -1.538581692721
        69,  20.287968501734,  -1.520083727209
        70,  20.588392321876,  -1.501506643486
        71,  20.888814234615,  -1.482868086386
        72,  21.189232747665,  -1.464186111719
        73,  21.489646370197,  -1.44547794838 
        74,  21.790064696693,  -1.426758205289
        75,  22.090479690691,  -1.408039341147
        76,  22.390894999058,  -1.389328344373
        77,  22.691314583711,  -1.370625820024
        78,  22.991728793613,  -1.351924937252
        79,  23.292146154613,  -1.333208123607
        80,  23.592558415669,  -1.314450379182
        81,  23.892967072312,  -1.295620643445
        82,  24.193367530233,  -1.276686658938
        83,  24.493761006161,  -1.257617830319
        84,  24.794145868417,  -1.238388684547
        85,  25.094513559762,  -1.218981221462
        86,  25.394878948856,  -1.199384010119
        87,  25.695219643899,  -1.179596404231
        88,  25.995557142618,  -1.159623143459
        89,  26.295880826473,  -1.139478986273
        90,  26.596193366106,  -1.119185108112
        91,  26.896502495175,  -1.098768014842
        92,  27.196799946976,  -1.078258877174
        93,  27.497096494843,  -1.057689959143
        94,  27.797390450707,  -1.037096286165
        95,  28.097685710932,  -1.016514211244
        96,  28.39797989841 ,  -0.995981895874
        97,  28.698291103685,  -0.975536427301
        98,  28.998599025698,  -0.955215105532
        99,  29.298916114549,  -0.935043177723
       100,  29.599256560322,  -0.915017841508
       101,  29.899591976619,  -0.895080179302
       102,  30.199920136288,  -0.875074441709
       103,  30.500227427909,  -0.854735570608
       104,  30.800490380515,  -0.833729153805
       105,  31.100686975823,  -0.811756945062
       106,  31.400799084362,  -0.788658777464
       107,  31.700819969561,  -0.764417663196
       108,  32.000750509846,  -0.739100120396
       109,  32.300562522939,  -0.712805587454
       110,  32.600301261989,  -0.68562818134 
       111,  32.311001711364,  -0.61003183383 
       112,  32.021151025254,  -0.536562598896
       113,  31.730710941268,  -0.465477451667
       114,  31.439625242773,  -0.397064448338
       115,  31.147859955582,  -0.331614676232
       116,  30.855403371918,  -0.269328315142
       117,  30.562300912602,  -0.210172539606
       118,  30.268656432722,  -0.153776901786
       119,  29.974608867696,  -0.099517797109
       120,  29.680286877349,  -0.046733216379
       121,  29.385794518284,  0.0051054583932
       122,  29.091210743768,  0.0563393726892
       123,  28.796542729167,  0.1071600578528
       124,  28.501812020459,  0.1576494835802
       125,  28.207042902636,  0.2078282967031
       126,  27.912209828692,  0.2576910101103
       127,  27.61732074381 ,  0.3072053729616
       128,  27.322365425588,  0.3563287961537
       129,  27.027339796155,  0.4050085840717
       130,  26.732225802155,  0.4531879652833
       131,  26.437029301624,  0.5008020919713
       132,  26.141722462841,  0.5477903305256
       133,  25.846317467117,  0.5940894286814
       134,  25.550792971341,  0.6396506094197
       135,  25.255147809582,  0.6844344759143
       136,  24.95938763685 ,  0.7284156557155
       137,  24.66350132101 ,  0.7715877022204
       138,  24.36750587825 ,  0.8139575560746
       139,  24.071395078937,  0.8555529964702
       140,  23.775184799048,  0.8964136773114
       141,  23.478880820315,  0.9365907999678
       142,  23.18249556773 ,  0.9761376006773
       143,  22.886030573987,  1.0151026190797
       144,  22.589489909453,  1.0535183479633
       145,  22.292884968478,  1.0913932898498
       146,  21.996204965095,  1.1287156861921
       147,  21.699454621624,  1.1654539425962
       148,  21.402627402907,  1.2015652931275
       149,  21.105717252407,  1.236999082526 
       150,  20.80872271949 ,  1.2717007011219
       151,  20.511635448614,  1.3056170325452
       152,  20.214455219059,  1.338698413046 
       153,  19.917178326706,  1.3709033783821
       154,  19.619804883247,  1.4022019852141
       155,  19.322335655778,  1.4325807656225
       156,  19.024775217454,  1.4620446593864
       157,  18.727127020425,  1.4906166755941
       158,  18.429397832069,  1.5183328577155
       159,  18.131595395862,  1.5452374618378
       160,  17.833690409472,  1.5713819788714
       161,  17.53570731233 ,  1.5968124008755
       162,  17.237705932515,  1.6215660946154
       163,  16.939663904197,  1.6456757769094
       164,  16.641572927586,  1.6691551450922
       165,  16.343437142524,  1.6919928293032
       166,  16.045244468663,  1.7141475550011
       167,  15.746994837156,  1.7355434873907
       168,  15.44868452115 ,  1.7560784849967
       169,  15.150308564393,  1.7756358546223
       170,  14.851863449604,  1.7940972378984
       171,  14.553347591191,  1.8113535933895
       172,  14.254756122988,  1.8273138115497
       173,  13.956101163859,  1.8419089755652
       174,  13.657373243773,  1.8550962441449
       175,  13.358591049259,  1.8668558141255
       176,  13.059754984544,  1.8771908832742
       177,  12.760867812244,  1.8861229562679
       178,  12.461951665525,  1.8936863383962
       179,  12.162996508694,  1.8999215893688
       180,  11.864023929016,  1.9048657399429
       181,  11.5650285445  ,  1.908547638043 
       182,  11.266022422955,  1.9109821834214
       183,  10.967007416195,  1.9121655569198
       184,  10.66799373817 ,  1.912068643195 
       185,  10.368978337512,  1.9106279802568
       186,  10.069976261822,  1.9077318465928
       187,  9.7710006556375,  1.9031976206845
       188,  9.4720397793671,  1.8967339785637
       189,  9.1731551110381,  1.8879152819925
       190,  8.8743769380483,  1.876261107616 
       191,  8.5757378667628,  1.8614841703637
       192,  8.2772554860902,  1.8437612227803
       193,  7.9789085574121,  1.8236709439579
       194,  7.6806872007267,  1.8017936618427
       195,  7.3825851157254,  1.7784426028525
       196,  7.0845999396774,  1.7536483408819
       197,  6.7867500962059,  1.7272069199624
       198,  6.4890868427214,  1.698712924182 
       199,  6.191700721283 ,  1.6676107305515
       200,  5.894666126545 ,  1.6333179771339
       201,  5.5980658432335,  1.5954185614288
       202,  5.301959108714 ,  1.5537963442268
       203,  5.0063802300309,  1.5086140193323
       204,  4.7113249999628,  1.4601435140868
       205,  4.4167849943985,  1.4085716890552
       206,  4.1228134519849,  1.3538850319248
       207,  3.829492023813 ,  1.2958156884469
       208,  3.5369790974171,  1.2338026296567
       209,  3.2455383316441,  1.1669492412052
       210,  2.9554888955798,  1.0942821947825
       211,  2.6669686521345,  1.0157541404172
       212,  2.3797153578672,  0.9327391229187
       213,  2.0939758704397,  0.8446485819366
       214,  1.8109067049883,  0.7484186681228
       215,  1.5311266822051,  0.6429151337138
       216,  1.2550444334458,  0.5280621854054
       217,  0.9841331706252,  0.4015936791676
       218,  0.7246622668731,  0.253324080985 
       219,  0.4781271850002,  0.0841160515336
       220,  0.2324914719899,  -0.086374663154
       221,  1.448010841E-15,  -0.274115708965
       222,  1.787992465E-15,  -0.62409082015 
       223,  0.272800141529 ,  -0.899940075839
       224,  0.523629960957 ,  -0.948488331173
       225,  0.2608284713112,  -0.612340562733
       226,  0.7976500640934,  -1.024696566855
       227,  0.2659897734879,  -0.319044164706
       228,  0.52200908858  ,  -0.623651244167
       229,  1.1229342353562,  -1.100651284109
       230,  1.3855309973318,  -1.27853862832 
       231,  0.7881384215904,  -0.665463110764
       232,  0.5497830529799,  -0.251637021333
       233,  1.0611813351762,  -0.695415461746
       234,  1.6590343971915,  -1.325366350316
       235,  1.372742122776 ,  -1.001382836304
       236,  0.793736334574 ,  -0.339777784481
       237,  1.9971613472796,  -1.355995141036
       238,  1.3353861247868,  -0.688802925091
       239,  1.638806415589 ,  -1.000216918819
       240,  1.0465667646926,  -0.344766496451
       241,  2.2678379135306,  -1.493729698665
       242,  0.7801301879603,  -0.052799779715
       243,  1.9273565895119,  -0.986802140921
       244,  1.6130264527365,  -0.669849915554
       245,  2.254065118822 ,  -1.242477430347
       246,  1.317176414487 ,  -0.347563628877
       247,  2.5391542608232,  -1.51582300023 
       248,  1.0690410526535,  0.0386199725712
       249,  2.2138479685891,  -0.950820270778
       250,  1.8978871752595,  -0.648397947722
       251,  1.3205016337642,  -0.037691521653
       252,  1.5934950808349,  -0.334707458202
       253,  2.5216428177588,  -1.222119929933
       254,  2.8307193373915,  -1.528129452258
       255,  1.303364442206 ,  0.2339300264978
       256,  2.1864774315722,  -0.620013956069
       257,  1.8773679877598,  -0.308160370992
       258,  1.5778513449873,  -0.005725420644
       259,  2.4992508742113,  -0.914034074106
       260,  3.1277749947667,  -1.54271292073 
       261,  2.8108848383096,  -1.21158129297 
       262,  3.4271225167351,  -1.558784991068
       263,  1.5584052852267,  0.3165079928259
       264,  2.166188342537 ,  -0.281545082746
       265,  2.4767930696212,  -0.589487202749
       266,  1.8617757413101,  0.0364973737718
       267,  3.1064076987334,  -1.210352728701
       268,  2.7901240027808,  -0.890200836831
       269,  3.7338049565806,  -1.571878342218
       270,  3.4044834071716,  -1.21470368071 
       271,  2.4567962274473,  -0.257540171783
       272,  2.1545642093709,  0.0641676292084
       273,  3.0847995592194,  -0.87753830834 
       274,  2.7690367635118,  -0.563250972196
       275,  1.8433572545958,  0.3886872772337
       276,  4.0848213322339,  -1.576920831742
       277,  3.7070893053126,  -1.216139867916
       278,  2.4434792156501,  0.0742053246658
       279,  3.3813200616846,  -0.871704151958
       280,  2.7485050110567,  -0.234477933132
       281,  3.0631231599652,  -0.543975137671
       282,  2.1785590723815,  0.4601417226062
       283,  4.3614099205885,  -1.69770799471 
       284,  4.009430369511 ,  -1.196528540719
       285,  3.6788684582369,  -0.864539266034
       286,  2.7301455710629,  0.0897989648071
       287,  2.4470328462345,  0.3762424545533
       288,  4.3454541733667,  -1.444124216292
       289,  3.3585144311101,  -0.52959006312 
       290,  3.0416187212477,  -0.211302972686
       291,  4.6357104539951,  -1.700812744467
       292,  2.42886110599  ,  0.6427438041202
       293,  2.7132892512123,  0.403617039271 
       294,  3.9761593998801,  -0.84702323355 
       295,  4.3024548499998,  -1.150507416453
       296,  3.6546941588144,  -0.515771845011
       297,  3.0205219072608,  0.1183617043756
       298,  3.3360530826925,  -0.188855646577
       299,  4.6163680516137,  -1.409068254975
       300,  4.9297066919911,  -1.695600525351
       301,  2.6929722857566,  0.7092365423469
       302,  2.9996384676502,  0.4444219345469
       303,  3.9511854717074,  -0.497957269118
       304,  4.2721351434675,  -0.815987937692
       305,  3.6314848562654,  -0.168040701322
       306,  3.3139636170159,  0.1500861198827
       307,  4.5921057400859,  -1.102664972022
       308,  5.2288194505062,  -1.695242350778
       309,  4.9085442920121,  -1.385394617856
       310,  2.9782019438293,  0.7685558030225
       311,  4.2476977900731,  -0.474162493788
       312,  3.9276676170706,  -0.14898182358 
       313,  3.2922284759728,  0.4879675852705
       314,  4.5675885956624,  -0.779212635476
       315,  3.6092278895232,  0.1787716025444
       316,  5.5297911092092,  -1.698292202326
       317,  4.8865012554729,  -1.070004480449
       318,  5.2066974385836,  -1.37413406835 
       319,  4.2244118816441,  -0.131389870172
       320,  3.2697982729003,  0.8262247679292
       321,  4.5443561936066,  -0.447392450056
       322,  3.9056707468256,  0.198853408804 
       323,  3.5906593665656,  0.5276553825628
       324,  5.835109417782 ,  -1.700985421346
       325,  4.8640376544458,  -0.748409369192
       326,  5.5074579730118,  -1.37057794802 
       327,  5.1843767531572,  -1.052275170624
       328,  4.5215904730097,  -0.114660962907
       329,  4.2025025386723,  0.2089444231026
       330,  6.1417506694291,  -1.710514353436
       331,  4.8415350274709,  -0.423274675386
       332,  5.8157962085069,  -1.365565496591
       333,  5.1619203750334,  -0.729029559503
       334,  5.4843039992362,  -1.04368323133 
       335,  3.5700302986796,  0.8801228247489
       336,  3.8918538746548,  0.5473153133416
       337,  6.4412736424038,  -1.729797379078
       338,  4.4995712096628,  0.2148419901316
       339,  4.8191440643814,  -0.098206936757
       340,  6.167884950453 ,  -1.35020193605 
       341,  5.1394398208002,  -0.40509872971 
       342,  4.1874455835729,  0.5418120102604
       343,  5.7884602748828,  -1.03288811514 
       344,  5.4609339244875,  -0.717339218354
       345,  3.9154180769337,  0.9313559230677
       346,  6.7370280527795,  -1.743885394304
       347,  6.4451005681831,  -1.452726509046
       348,  4.7970510944355,  0.2240565726176
       349,  4.4800444958905,  0.5348131452282
       350,  5.1170394009978,  -0.08193133514 
       351,  4.1903965711066,  0.835641721115 
       352,  6.0920830442019,  -1.002868753106
       353,  5.4379510901569,  -0.391375622142
       354,  5.7605908875089,  -0.704863017649
       355,  6.4282860750084,  -1.215173380264
       356,  4.1720217729585,  1.0863990656791
       357,  6.720142987616 ,  -1.457800164885
       358,  7.0356779878993,  -1.7484629933  
       359,  4.4625956291124,  0.8374009228295
       360,  4.7755154428426,  0.5411024526968
       361,  5.0947982920277,  0.2393133167738
       362,  5.4152757726886,  -0.066134086958
       363,  5.7367772591407,  -0.378074357262
       364,  6.0597466959595,  -0.683803491516
       365,  6.3864902483921,  -0.953883322206
       366,  6.7008368322083,  -1.186317570371
       367,  7.0152556491971,  -1.457050181366
       368,  4.4422622500613,  1.1248346475131
       369,  7.3362548414592,  -1.749203036217
       370,  4.7544455046975,  0.851368695298 
       371,  5.0727359458218,  0.5582795571417
       372,  5.3929269539843,  0.2580953628272
       373,  5.7138591488761,  -0.051118701285
       374,  6.0355789895372,  -0.361506193966
       375,  6.3575366424257,  -0.653216903284
       376,  6.6779116143266,  -0.911543980752
       377,  6.9948604411496,  -1.171611619782
       378,  7.3151912978068,  -1.454977885628
       379,  4.7332118636468,  1.1563513486933
       380,  7.6371544898434,  -1.747477246592
       381,  5.0507705231557,  0.8752829073861
       382,  5.3709764664518,  0.5817579148408
       383,  5.6918528297384,  0.27573828811  
       384,  6.0127220128997,  -0.037067609933
       385,  6.3341816124568,  -0.340583876105
       386,  6.6548198009342,  -0.620674518953
       387,  6.9740854359391,  -0.885950197955
       388,  7.2942183110764,  -1.162758292156
       389,  7.615920008262 ,  -1.451496903818
       390,  7.9383797019239,  -1.74428037448 
       391,  5.0287251071012,  1.1914273106762
       392,  5.3487829960257,  0.9053187997629
       393,  5.6736248238684,  0.6051259087125
       394,  5.9913087943918,  0.2875806461602
       395,  6.3117740081289,  -0.024045749929
       396,  6.6327564758939,  -0.317965092688
       397,  6.9529368923854,  -0.594513466818
       398,  7.2732306456247,  -0.870754875614
       399,  7.5947090670531,  -1.156303452766
       400,  7.9173682536545,  -1.446955816113
       401,  8.2404591849521,  -1.739936385242
       402,  5.3257196130156,  1.2289725036977
       403,  5.6543042056902,  0.9378786302014
       404,  6.2906131148601,  0.2921276370115
       405,  5.9781257233277,  0.6142540562943
       406,  6.6109786796012,  -0.011785864731
       407,  6.931629347159 ,  -0.29792256474 
       408,  7.2521411547714,  -0.577385415488
       409,  7.5734978330157,  -0.861390226346
       410,  7.8963666298697,  -1.150228700382
       411,  8.2205489737615,  -1.441385416674
       412,  8.5437046903829,  -1.734544059277
       413,  6.2761940449707,  0.6038431355844
       414,  6.5898025754906,  0.2933815324253
       415,  5.6269570479276,  1.2684921964746
       416,  6.0038534524425,  0.9754072559722
       417,  6.9103282666096,  8.647867875E-05
       418,  7.2309710517525,  -0.282818235993
       419,  7.5522438235772,  -0.566421097309
       420,  7.8753244285823,  -0.853809457815
       421,  8.2006427098224,  -1.143480592724
       422,  8.5260793206618,  -1.434871635979
       423,  8.847809349518 ,  -1.728378872063
       424,  6.570923964075 ,  0.5923848366178
       425,  6.2797949806661,  0.8809457336994
       426,  6.8892196692456,  0.2968862342115
       427,  5.9282786731437,  1.3188537053711
       428,  7.2098096627696,  0.0116357481598
       429,  7.5309164197112,  -0.271520090247
       430,  7.854068141027 ,  -0.55756929772 
       431,  8.1805508397582,  -0.845896720776
       432,  8.50844633092  ,  -1.135906057907
       433,  6.2629282518118,  1.1187426285582
       434,  8.8333476571055,  -1.427855025588
       435,  9.1522513275896,  -1.721716609564
       436,  6.5540210599245,  0.8771662761236
       437,  6.8685345311743,  0.5906156914042
       438,  7.1887329777877,  0.3049613910958
       439,  7.5095336044641,  0.0228504965187
       440,  7.8323365280838,  -0.261587852343
       441,  6.221294414237 ,  1.3766589654332
       442,  8.1595915657716,  -0.548508527877
       443,  8.4903495383662,  -0.837063984699
       444,  8.8188744116252,  -1.127997984936
       445,  6.534720851475 ,  1.148162595278 
       446,  6.8482587525866,  0.8790900168982
       447,  9.1413098230332,  -1.420738039793
       448,  9.4566885526496,  -1.714667973306
       449,  7.1677738746845,  0.5968248543321
       450,  7.4881667366946,  0.3163587823291
       451,  7.8100552151913,  0.0339223625458
       452,  8.1367417147604,  -0.251405640712
       453,  8.4697434477214,  -0.538031671863
       454,  6.5119946605624,  1.4191006066533
       455,  8.8037589877787,  -0.827688700331
       456,  6.8280033036806,  1.1622525657908
       457,  9.130377584621 ,  -1.120280182004
       458,  7.1469344095536,  0.8870812011459
       459,  9.4492779005096,  -1.413626012236
       460,  9.7607796371785,  -1.707394260064
       461,  7.4669116365508,  0.6089466223051
       462,  7.7875598816828,  0.3288151677762
       463,  8.1118267189773,  0.0452650518251
       464,  8.4435267195736,  -0.239451430336
       465,  6.8074856757867,  1.4437947293833
       466,  8.7847744872809,  -0.523508713155
       467,  7.126180395283 ,  1.1759173284974
       468,  9.1190381330679,  -0.818943049825
       469,  9.4419142193905,  -1.112953756455
       470,  7.4457757442473,  0.9010796423402
       471,  9.7565660338353,  -1.406759323104
       472,  10.064006208363,  -1.700361656831
       473,  7.7653787277464,  0.6232017216468
       474,  8.0862755407026,  0.3415099970954
       475,  8.4121741383101,  0.0578898771925
       476,  8.7506187470822,  -0.219282026182
       477,  7.1054310451505,  1.464348212584 
       478,  9.1056239841456,  -0.51035306624 
       479,  7.4247263697644,  1.19303742246  
       480,  9.4346089122781,  -0.811668266573
       481,  9.7524277762543,  -1.106430732238
       482,  7.7437837990419,  0.917354054074 
       483,  10.062138283065,  -1.400946094176
       484,  10.366066930619,  -1.693998633201
       485,  8.062007401207 ,  0.6374967644897
       486,  8.3810514855706,  0.3544919084158
       487,  8.7029651951757,  0.0763292436335
       488,  9.0863570883794,  -0.157644210297
       489,  7.403688392232 ,  1.4852827842864
       490,  9.4284035752265,  -0.506296738374
       491,  7.722647130607 ,  1.2115469012884
       492,  9.7485745639594,  -0.806002166415
       493,  10.060353050001,  -1.1018674218  
       494,  10.365388020402,  -1.396878839663
       495,  8.0398153463902,  0.9333988330511
       496,  10.667254715653,  -1.688078909425
       497,  8.354507513803 ,  0.6513002432003
       498,  8.9566587462889,  0.1083606395905
       499,  8.6643349953658,  0.3684064596276
       500,  7.7016814615947,  1.5061803304907
       501,  9.4339789121434,  -0.199997679746
       502,  9.1872507097014,  0.1153055964121
       503,  9.746442125466 ,  -0.505129899789
       504,  8.0191209233129,  1.2294146280693
       505,  10.364787982037,  -1.100177073654
       506,  10.058793160776,  -0.802920074396
       507,  10.66688688746 ,  -1.394133344737
       508,  8.3326869888266,  0.9484871123452
       509,  10.967977602825,  -1.681334096662
       510,  8.6403909205978,  0.6642058442661
       511,  8.9321774485127,  0.3816398392135
       512,  7.9989909833908,  1.5259632797968
       513,  9.4551875442263,  0.0987104385886
       514,  9.749039781651 ,  -0.204200211678
       515,  9.1966997974463,  0.3899833354164
       516,  8.3135637761456,  1.2459726038676
       517,  10.364313920363,  -0.803653979043
       518,  10.666594993361,  -1.10087297232 
       519,  10.058040472047,  -0.503932228916
       520,  10.967288795963,  -1.390819194508
       521,  8.6223007253672,  0.9622443955406
       522,  11.268251226717,  -1.670889631328
       523,  8.9201660079653,  0.6755015299254
       524,  8.2953589836318,  1.5441340303308
       525,  9.7574152912522,  0.0961869074825
       526,  10.666404062414,  -0.807842784893
       527,  10.364128254132,  -0.507042413586
       528,  9.4748460548918,  0.3937877493523
       529,  10.966642042458,  -1.102500273636
       530,  8.6063920885718,  1.2608937495464
       531,  10.059117622533,  -0.204657020976
       532,  11.265369212697,  -1.381956166955
       533,  8.909832061946 ,  0.9741929550961
       534,  9.199509952504 ,  0.6847459500174
       535,  11.568203682484,  -1.654405215279
       536,  8.5910561769695,  1.5603256122229
       537,  10.666335163534,  -0.514451091486
       538,  10.966418591576,  -0.81489383789 
       539,  10.364492223809,  -0.209755219185
       540,  11.26161547519 ,  -1.101590403046
       541,  9.7678329656888,  0.3963541188954
       542,  10.06244482407 ,  0.0953012302691
       543,  8.8985194783301,  1.2737445038456
       544,  9.1972932660254,  0.9841701279991
       545,  9.484309599401 ,  0.6920228729624
       546,  11.559902653314,  -1.356251850492
       547,  11.86861559694 ,  -1.63473280398 
       548,  10.966604335938,  -0.525751215776
       549,  10.666399708906,  -0.219666439116
       550,  11.261305462753,  -0.825487643218
       551,  11.536143325368,  -1.087457211276
       552,  10.365497815856,  0.0892245759537
       553,  8.8865525533367,  1.5740998508834
       554,  10.066851489026,  0.3961699366436
       555,  9.190637092635 ,  1.284360803537 
       556,  9.7752901785257,  0.696878996274 
       557,  9.4863807634   ,  0.9921950231918
       558,  11.857937655709,  -1.319524855142
       559,  12.169859721194,  -1.617803898189
       560,  11.53577941537 ,  -0.845365688648
       561,  10.966796565492,  -0.233323290668
       562,  11.264393363524,  -0.543418035434
       563,  10.666581126693,  0.0781981394566
       564,  10.366830550484,  0.3904826975644
       565,  9.1821062435924,  1.585295679637 
       566,  10.070332985583,  0.6977054057054
       567,  9.4831623850957,  1.2927891495536
       568,  9.7777619789007,  0.9976980278395
       569,  12.471211562908,  -1.605528683045
       570,  12.163978003572,  -1.295725386497
       571,  11.805830140322,  -0.966787057205
       572,  11.558658548089,  -0.575416514807
       573,  11.266516660581,  -0.251812058463
       574,  10.966807646155,  0.0640287007778
       575,  10.666823670716,  0.3801076480878
       576,  10.367961034054,  0.6934067831014
       577,  10.071793885295,  0.9995026964504
       578,  9.4778247799281,  1.5940338805179
       579,  9.7765805038749,  1.2987128402416
       580,  12.772128568623,  -1.595529259266
       581,  12.469423129644,  -1.285780247922
       582,  12.159004819022,  -0.966898826879
       583,  11.856431918246,  -0.615107572803
       584,  11.565871704806,  -0.275927139269
       585,  11.266781742387,  0.047255561945 
       586,  10.966735280144,  0.3670767743491
       587,  10.667064378724,  0.6849614150061
       588,  10.368591869808,  0.9970000998864
       589,  10.071659537414,  1.301491144908 
       590,  9.7739376908655,  1.6003216280243
       591,  13.07280414825 ,  -1.585899406802
       592,  12.770775244953,  -1.277920810911
       593,  12.467934243533,  -0.965235140811
       594,  12.162163609903,  -0.639463329593
       595,  11.865640462465,  -0.301290156131
       596,  11.56665499776 ,  0.0283139013618
       597,  11.266566738586,  0.3525756897129
       598,  10.966677370082,  0.6741559221148
       599,  10.667278011503,  0.9909899068561
       600,  10.368824421214,  1.3008641780553
       601,  10.070881468449,  1.6040436651494
       602,  13.373443303669,  -1.57622312904 
       603,  13.071342345084,  -1.270062452507
       604,  12.769503835374,  -0.960747927534
       605,  12.467284120121,  -0.645465829435
       606,  12.166214611059,  -0.319789095012
       607,  11.866489242359,  0.00972536733  
       608,  11.566321669951,  0.3373344468393
       609,  11.266337660929,  0.6622060484541
       610,  10.966669948126,  0.9828281367404
       611,  10.667486989841,  1.2973827882394
       612,  10.368909146556,  1.6052425886905
       613,  13.674064347714,  -1.566328381434
       614,  13.371838591653,  -1.262256932646
       615,  13.069944832107,  -0.954860544433
       616,  12.768332701464,  -0.643982674198
       617,  12.466921728115,  -0.327445790036
       618,  12.166347616257,  -0.004079099374
       619,  11.866015279837,  0.3228946171886
       620,  11.565941463052,  0.6498665023166
       621,  11.266163782541,  0.9735546793779
       622,  10.966726856044,  1.2919510885815
       623,  10.667724645217,  1.6042616462588
       624,  13.672314856599,  -1.254372898143
       625,  13.974653923528,  -1.555745772016
       626,  13.370293686817,  -0.948916420295
       627,  13.068604409686,  -0.63999434563 
       628,  12.76723274594 ,  -0.327599652529
       629,  12.466251009294,  -0.010486836442
       630,  12.165693565858,  0.3119893787806
       631,  11.865492409862,  0.6381250359486
       632,  11.565618693025,  0.963785987535 
       633,  11.266058053443,  1.2853639253631
       634,  10.966846638652,  1.6015872880895
       635,  13.97274774563 ,  -1.245574924922
       636,  13.670618425442,  -0.942961094028
       637,  14.275189612315,  -1.543746471549
       638,  13.368801153752,  -0.635895935775
       639,  13.067315518773,  -0.325298413884
       640,  12.766171082922,  -0.011467648521
       641,  12.465404623064,  0.3063601767421
       642,  12.165028951925,  0.6288491012569
       643,  11.86502992916 ,  0.9541849136449
       644,  11.565363090659,  1.2780944902126
       645,  11.266017639169,  1.5976973852578
       646,  13.97088848044 ,  -0.935864252963
       647,  14.273098591104,  -1.234521811914
       648,  13.668968966816,  -0.631844703549
       649,  13.367355558918,  -0.323031955986
       650,  14.575664324724,  -1.529983357793
       651,  13.066077006178,  -0.010725904769
       652,  12.765148066312,  0.3045480813571
       653,  12.464590861798,  0.6233345946709
       654,  12.164425732951,  0.9460350386539
       655,  11.864633950975,  1.2705071227181
       656,  11.565172534156,  1.5928741355386
       657,  14.271051798639,  -0.925759628624
       658,  13.969071759237,  -0.626464982472
       659,  13.667362485903,  -0.3209238619  
       660,  14.573354722708,  -1.220558192494
       661,  13.365955801571,  -0.01028922192 
       662,  14.876100074237,  -1.514938999724
       663,  13.064888963094,  0.3037352341806
       664,  12.764175992358,  0.6204898763093
       665,  12.463836714777,  0.9403514115702
       666,  12.163887874975,  1.2633881888664
       667,  11.864303366115,  1.5872573472697
       668,  14.269044623745,  -0.617429907329
       669,  13.967297654628,  -0.317496004388
       670,  13.665798978587,  -0.010223298324
       671,  14.571091148573,  -0.911698763848
       672,  13.364601944873,  0.3023350184163
       673,  14.873556781476,  -1.204565831254
       674,  15.176523151235,  -1.499336584478
       675,  13.063751448646,  0.6180904539604
       676,  12.763259815412,  0.9363750001738
       677,  12.46314538279 ,  1.2574841700329
       678,  12.163416110685,  1.5811968184926
       679,  14.267080688651,  -0.310175941247
       680,  13.96557189511 ,  -0.00930699656 
       681,  14.568857684726,  -0.603453367847
       682,  13.664278777273,  0.300244663866 
       683,  14.871062598605,  -0.894878176053
       684,  13.363293910753,  0.6148491155143
       685,  15.173754625636,  -1.187892466541
       686,  15.476944266101,  -1.483577432392
       687,  13.062665345142,  0.9323700968698
       688,  12.762402617206,  1.2523432093172
       689,  12.462519277246,  1.5751007825016
       690,  14.265179072855,  -0.005370935653
       691,  13.963897019021,  0.2979702110084
       692,  14.566590514122,  -0.297228315397
       693,  13.662800596097,  0.6105640007047
       694,  14.868567285313,  -0.585866714199
       695,  13.362032621821,  0.9272952855731
       696,  15.171035162364,  -0.877184648644
       697,  15.473967534865,  -1.171287866975
       698,  13.061634389442,  1.246719985907 
       699,  15.777361529104,  -1.467746816086
       700,  12.761607818621,  1.5687619788455
       701,  14.263361074444,  0.2963189462891
       702,  13.962265133173,  0.6048381087218
       703,  14.564232017112,  0.00360043006  
       704,  13.661363517059,  0.9209050357372
       705,  14.865652813359,  -0.279238341119
       706,  13.360823129391,  1.2398369661362
       707,  15.168268737646,  -0.566983888126
       708,  15.47103515668 ,  -0.85969747832 
       709,  15.774190088424,  -1.15489792758 
       710,  13.060664254071,  1.5614953715261
       711,  16.077761186359,  -1.451682255523
       712,  14.561983698108,  0.2967153370136
       713,  14.261617593155,  0.5966075329215
       714,  13.960663718084,  0.9122109926639
       715,  13.659972509479,  1.2315133853797
       716,  14.861034490438,  0.0188160708945
       717,  15.164425064373,  -0.25804683417 
       718,  13.359674798883,  1.5528551755327
       719,  15.46803518797 ,  -0.54834695639 
       720,  15.771054483326,  -0.842647715133
       721,  16.074395632404,  -1.138396738202
       722,  16.378114565364,  -1.435036832058
       723,  14.560179029592,  0.5858313970583
       724,  14.855684625942,  0.3010336337108
       725,  14.259900398255,  0.8988336494218
       726,  13.959091372107,  1.2207569800138
       727,  13.658640151756,  1.542763731677 
       728,  15.154295166329,  0.0456948563723
       729,  15.463713738367,  -0.236483785617
       730,  15.767874724312,  -0.530499691464
       731,  16.07105610616 ,  -0.82559738613 
       732,  16.374530301795,  -1.12112710482 
       733,  16.678400481009,  -1.41760418146 
       734,  14.853854047634,  0.5731892631478
       735,  14.55870324019 ,  0.8794610641216
       736,  14.258170151562,  1.205133652701 
       737,  13.957564142124,  1.5306553072958
       738,  15.129009947687,  0.3150071175664
       739,  15.451082444567,  0.0789058145478
       740,  15.763879665796,  -0.217159588719
       741,  16.067708963694,  -0.512996323914
       742,  16.370965644661,  -0.807663133354
       743,  16.674553401739,  -1.102705352504
       744,  16.97863046916 ,  -1.39960883946 
       745,  14.855321538261,  0.8544944547301
       746,  15.127274004261,  0.5517914351871
       747,  14.55710415028 ,  1.1831613251656
       748,  14.256441963825,  1.5150919250035
       749,  15.755949257821,  0.1015070703856
       750,  16.064148447744,  -0.199866192301
       751,  16.367414778294,  -0.494742201481
       752,  15.396992674418,  0.4290778073878
       753,  16.670726884222,  -0.788340626325
       754,  16.974485460127,  -1.08352239408 
       755,  17.278825161227,  -1.381452871543
       756,  15.148507180236,  0.8185254450563
       757,  14.85563545111 ,  1.15608812897  
       758,  14.555256934955,  1.4952260313735
       759,  16.060250853348,  0.1152083385321
       760,  16.363874643618,  -0.182570300057
       761,  15.748877492518,  0.4279708836247
       762,  16.666925784834,  -0.475076058083
       763,  16.970367245053,  -0.768135852168
       764,  15.445265616612,  0.7784712087204
       765,  17.274362265099,  -1.064278957807
       766,  17.578923685516,  -1.363510366371
       767,  15.153827120456,  1.1267980131913
       768,  14.853985810066,  1.4722185142965
       769,  16.360354577726,  0.1290661703024
       770,  16.056614188301,  0.4330202042214
       771,  16.663172581802,  -0.164143632263
       772,  15.749894865984,  0.7566373024246
       773,  16.96628492062 ,  -0.454416584255
       774,  17.269932694718,  -0.747929681386
       775,  17.574057088872,  -1.045648825959
       776,  17.87859419716 ,  -1.346536055741
       777,  15.45243316948 ,  1.1006061221009
       778,  15.15262955459 ,  1.4484940976188
       779,  16.356882453552,  0.440792120653 
       780,  16.659482481569,  0.1437597440848
       781,  16.053779534386,  0.7525558768331
       782,  16.96227448713 ,  -0.14451410891 
       783,  15.751800480864,  1.0827829110676
       784,  17.265545764208,  -0.433492477641
       785,  17.569231851666,  -0.728619381033
       786,  17.872905537748,  -1.029102351069
       787,  18.177202061325,  -1.331848586839
       788,  15.451223949109,  1.426730626183 
       789,  16.655837053008,  0.4494438088799
       790,  16.353471132314,  0.7529121667667
       791,  16.958350940528,  0.1601433791206
       792,  16.051204645424,  1.0725619414554
       793,  17.261242876293,  -0.123470722457
       794,  17.564465102665,  -0.413238849975
       795,  15.749791600586,  1.4084915245982
       796,  18.474399854731,  -1.3199801169  
       797,  17.867280973584,  -0.712386479667
       798,  18.169623610878,  -1.01726194965 
       799,  16.65220940137 ,  0.7541331247591
       800,  16.954414429626,  0.4604068993014
       801,  16.350097088716,  1.0653820107205
       802,  17.257013874133,  0.1803703533248
       803,  16.048310761154,  1.3929704398942
       804,  18.463307043385,  -1.011308903242
       805,  18.770832239651,  -1.309023422946
       806,  17.5598111178  ,  -0.101549091398
       807,  17.861808642217,  -0.396646193621
       808,  18.162162187214,  -0.703192200174
       809,  16.950330616137,  0.7575907746956
       810,  16.648603779798,  1.0586050861768
       811,  17.252406362939,  0.4785514847022
       812,  16.346746519258,  1.3783348358528
       813,  18.75418927043 ,  -1.008007277109
       814,  18.452340214907,  -0.703046849016
       815,  17.555224020813,  0.2050011588314
       816,  19.067878072194,  -1.295735030148
       817,  17.85666109243 ,  -0.082880454449
       818,  18.155157226612,  -0.389220074978
       819,  16.946266153914,  1.0528548181453
       820,  17.246069604814,  0.7699730264669
       821,  16.645052956298,  1.3634842003027
       822,  18.737167937584,  -0.708124757106
       823,  19.042837163339,  -1.001788934408
       824,  18.442603501651,  -0.393997687473
       825,  17.549640822863,  0.5069685574775
       826,  17.851840606233,  0.2282293871636
       827,  18.14920509093 ,  -0.075090653497
       828,  19.365940215434,  -1.279108610936
       829,  17.238964034363,  1.052956724279 
       830,  16.942675834955,  1.3483787664543
       831,  19.015201575438,  -0.711948383856
       832,  18.723524584452,  -0.40695313196 
       833,  17.537820921832,  0.8040014009509
       834,  18.435573102424,  -0.082527808447
       835,  17.845996440106,  0.5377306559708
       836,  19.330402331193,  -0.989778186644
       837,  18.144564278931,  0.2393345186434
       838,  19.651435944798,  -1.263337038744
       839,  19.285081035897,  -0.711485027269
       840,  17.235756861524,  1.3341858577608
       841,  18.996522220241,  -0.421407881017
       842,  17.511076080316,  1.071238288005 
       843,  18.71605193562 ,  -0.10096163213 
       844,  18.431829066666,  0.2322436940351
       845,  17.832013739931,  0.8504350309643
       846,  19.529875038219,  -0.707350267767
       847,  18.140113582286,  0.5548157741672
       848,  19.637771325035,  -0.966599391422
       849,  19.942300117205,  -1.164739228508
       850,  19.260646570501,  -0.435119718362
       851,  17.508860124628,  1.3171989932732
       852,  18.991180153489,  -0.123236325159
       853,  18.714553914687,  0.2115946173207
       854,  18.430166915098,  0.54986400933  
       855,  19.759901074304,  -0.749117566224
       856,  19.520664509175,  -0.455358677488
       857,  18.132172944803,  0.8754595256922
       858,  17.777663078467,  1.2026187457187
       859,  19.262215107024,  -0.146516508492
       860,  20.302393400179,  -1.195038098874
       861,  20.027504489007,  -0.830660958367
       862,  18.994511233908,  0.185540063321 
       863,  18.716572012972,  0.528975551989 
       864,  19.787273385557,  -0.492049868039
       865,  18.429072410249,  0.8699965126602
       866,  19.533540676648,  -0.173041355551
       867,  18.125912354986,  1.2062090471345
       868,  20.610857233195,  -1.198516800607
       869,  19.273113144791,  0.1582437072442
       870,  20.330819684314,  -0.879885829375
       871,  20.068306026412,  -0.53782810264 
       872,  19.001244134348,  0.5018063406097
       873,  18.719832921994,  0.8485358251476
       874,  19.810499660118,  -0.204877168239
       875,  18.428638181546,  1.1929511156951
       876,  19.55214235079 ,  0.1300892018679
       877,  20.910741446398,  -1.194987008412
       878,  20.634699893001,  -0.897065874174
       879,  19.285442208597,  0.4732402233726
       880,  20.361499943378,  -0.57386408065 
       881,  19.008909099925,  0.8210481151724
       882,  20.095535452084,  -0.238603738548
       883,  18.723406787511,  1.1691217292936
       884,  19.833906413917,  0.1006727889991
       885,  19.569833017822,  0.4446586543461
       886,  21.205072100014,  -1.191317264578
       887,  20.933374450223,  -0.906939464539
       888,  20.659241719718,  -0.59658090628 
       889,  19.29768750993 ,  0.7921838074681
       890,  20.38762439383 ,  -0.268640413087
       891,  19.016790132838,  1.1411892464663
       892,  20.12050952871 ,  0.0706003105486
       893,  19.85556553288 ,  0.4156140047733
       894,  21.226047747057,  -0.920151637174
       895,  21.479873009779,  -1.180718207069
       896,  19.586559304401,  0.7630850462137
       897,  20.956770771538,  -0.616542851532
       898,  20.68363013921 ,  -0.294582902019
       899,  19.30996046035 ,  1.1120392225886
       900,  20.412498960547,  0.0409355221353
       901,  20.144373475772,  0.3856924569358
       902,  21.497529419602,  -0.943906212735
       903,  21.251470441109,  -0.642268613628
       904,  19.87618017182 ,  0.7335272282443
       905,  20.980620320433,  -0.320920599922
       906,  19.603136917866,  1.0823498486604
       907,  20.708065839165,  0.0117221048178
       908,  20.437178099109,  0.3548030919878
       909,  21.757231434832,  -1.070711773557
       910,  21.541555687984,  -0.681485792461
       911,  20.167722071975,  0.7029177743597
       912,  21.277049690328,  -0.351493828461
       913,  19.896636363184,  1.051994113068 
       914,  21.00486386524 ,  -0.01821907778 
       915,  22.107873725921,  -1.078786719595
       916,  20.732853758957,  0.3232902387006
       917,  21.834527634374,  -0.72784599561 
       918,  20.461880198038,  0.6710403096194
       919,  21.57277298653 ,  -0.386266374457
       920,  20.191038458537,  1.0206124783259
       921,  21.301691622814,  -0.049846085869
       922,  21.029613236498,  0.2914200720763
       923,  22.414828046585,  -1.07753485363 
       924,  22.136657838144,  -0.758176708961
       925,  20.757958894977,  0.6383408271543
       926,  21.868907064803,  -0.420588144842
       927,  20.48669554763 ,  0.9880820993919
       928,  21.598341661225,  -0.082537204154
       929,  21.326503650847,  0.2591932988573
       930,  22.71522179575 ,  -1.07160225326 
       931,  21.054777514923,  0.605370243434 
       932,  22.439764607381,  -0.768474089267
       933,  22.16646387109 ,  -0.447028572693
       934,  20.783269564203,  0.954715327126 
       935,  21.895050730738,  -0.113691905143
       936,  21.623314715687,  0.2268697145944
       937,  21.351690464639,  0.5722872484284
       938,  23.013971614913,  -1.067846276486
       939,  22.739349007243,  -0.772008323632
       940,  22.465057729441,  -0.46228236114 
       941,  21.080177148454,  0.9208873544909
       942,  22.192208711083,  -0.139420725022
       943,  21.920145791186,  0.1957616554629
       944,  21.648537034144,  0.5391168657097
       945,  23.307931111247,  -1.067507826086
       946,  21.377095650428,  0.8867081416151
       947,  23.037237525449,  -0.778961111606
       948,  22.763736208071,  -0.471413014253
       949,  22.490016814273,  -0.157617400394
       950,  22.217243521622,  0.1682889996378
       951,  21.94536603544 ,  0.5065159326689
       952,  23.329686595944,  -0.793281072889
       953,  23.5826544382  ,  -1.057629064425
       954,  21.673939578913,  0.8521539606707
       955,  23.061654306503,  -0.482572998941
       956,  22.78827227181 ,  -0.170312124612
       957,  22.51480174587 ,  0.1462152120082
       958,  22.242341465185,  0.4760406384172
       959,  23.601252206083,  -0.815057235211
       960,  21.970730955373,  0.8175264330412
       961,  23.356861568594,  -0.50023935068 
       962,  23.086484246337,  -0.180998613874
       963,  22.81281589946 ,  0.1297871062546
       964,  22.539620676964,  0.4491783155664
       965,  23.8613818443  ,  -0.933379100166
       966,  22.267557331871,  0.7836477513123
       967,  23.647732748498,  -0.528302932607
       968,  23.383993688814,  -0.19166035277 
       969,  23.110943166691,  0.119556996791 
       970,  22.837275542689,  0.4273506001264
       971,  24.213360490647,  -0.925010873368
       972,  22.564511874062,  0.75142078602  
       973,  23.941954662488,  -0.558687981401
       974,  23.680887446668,  -0.202798094592
       975,  23.134836011424,  0.4129875047129
       976,  23.407456264578,  0.1159995879694
       977,  22.861654714932,  0.7220339098208
       978,  24.520859436825,  -0.916949618745
       979,  24.245394825199,  -0.573628515791
       980,  23.978690113576,  -0.214327578701
       981,  23.701334998215,  0.1220084741414
       982,  23.158561556424,  0.697339696238 
       983,  23.428225246746,  0.4063439636038
       984,  24.821225653029,  -0.910641658377
       985,  24.549118797273,  -0.577171807624
       986,  24.278121393845,  -0.226104736788
       987,  23.451272390664,  0.6762234342423
       988,  23.998937889152,  0.1292855580793
       989,  23.702040838657,  0.4076906286424
       990,  25.119619046909,  -0.909755169509
       991,  24.848479164666,  -0.583170576663
       992,  24.577666839477,  -0.238764400498
       993,  24.303157420687,  0.1202916717837
       994,  23.723233283931,  0.6464574139939
       995,  25.412930044097,  -0.915210096549
       996,  23.980370665866,  0.503584692084 
       997,  25.145535576414,  -0.598742082829
       998,  24.875933903181,  -0.255666959638
       999,  24.605629100945,  0.0985225291386
      1000,  25.686783507463,  -0.913907444241
      1001,  24.329343836976,  0.46803614717  
      1002,  25.436590197633,  -0.627510413075
      1003,  25.172398986565,  -0.283447455598
      1004,  24.903559007469,  0.0721335859033
      1005,  25.706372550812,  -0.667767684476
      1006,  24.633947910208,  0.4351567428846
      1007,  25.465335775592,  -0.32653161675 
      1008,  25.964652147715,  -0.801779389054
      1009,  25.199801108822,  0.036781864065 
      1010,  24.93137297134 ,  0.4001409987018
      1011,  25.753470561613,  -0.384587849465
      1012,  25.494584404481,  -0.010234127145
      1013,  26.315366849525,  -0.805497245841
      1014,  26.045188781069,  -0.441154764076
      1015,  25.227407700485,  0.360020124049 
      1016,  25.788481516099,  -0.063233920214
      1017,  26.622088753498,  -0.803759703968
      1018,  25.522776044279,  0.3136802948644
      1019,  26.346845411573,  -0.473535679832
      1020,  26.083225458968,  -0.110873965001
      1021,  25.817821127856,  0.264574832681 
      1022,  26.921117467656,  -0.804029194551
      1023,  26.649239567795,  -0.489099598245
      1024,  26.379792754813,  -0.146472650318
      1025,  26.113065809507,  0.218283228186 
      1026,  27.214385670595,  -0.808983086437
      1027,  26.946607980688,  -0.507860810402
      1028,  26.677024466533,  -0.175131487302
      1029,  26.408773152244,  0.1773543237431
      1030,  27.488199198666,  -0.807074935748
      1031,  27.237573189515,  -0.53640395619 
      1032,  26.973089743247,  -0.207846600641
      1033,  26.704659220096,  0.1387971651053
      1034,  27.507357931658,  -0.574662125159
      1035,  27.265844010247,  -0.251206360916
      1036,  27.000119638714,  0.0969991680948
      1037,  27.765723501761,  -0.701819915773
      1038,  27.553965766218,  -0.307130601962
      1039,  27.294627546381,  0.0488244913352
      1040,  28.115339532243,  -0.709866048259
      1041,  27.845465914   ,  -0.363590405999
      1042,  27.588451505833,  -0.003186794859
      1043,  28.416284000104,  -0.716023596176
      1044,  28.145668045252,  -0.403064484665
      1045,  27.882874250393,  -0.052842751514
      1046,  28.691043214736,  -0.714306266126
      1047,  28.441194052077,  -0.434007180127
      1048,  28.178175174168,  -0.097512990096
      1049,  28.71164283089 ,  -0.473391211053
      1050,  28.471398595631,  -0.142904019737
      1051,  28.969125444378,  -0.607630578865
      1052,  28.75970368852 ,  -0.199644653292
      1053,  29.31904030794 ,  -0.619275961643
      1054,  29.050855599983,  -0.26049197691 
      1055,  29.624366588965,  -0.626461185052
      1056,  29.351239047416,  -0.305208392602
      1057,  29.91837347265 ,  -0.633133528026
      1058,  29.651507441871,  -0.337200777317
      1059,  30.192298652403,  -0.631523778238
      1060,  29.943241042779,  -0.36931463379 
      1061,  30.213676428252,  -0.406908944674
      1062,  30.470932509474,  -0.533577205282
      1063,  30.817095320227,  -0.556216069692
      1064,  31.103902914118,  -0.599652961998
**HWCOLOR COMP          2    11
*ELEMENT,TYPE=CPS3,ELSET=WingElset
         1,         2,       223,         1
        11,       227,       220,       221
        14,       230,       235,       229
        21,       236,       242,       232
        28,       241,       245,       237
        40,       251,       255,       248
        76,       283,       288,       276
        80,       287,       292,       282
       147,       347,       355,       340
       153,       351,       356,       345
       233,       425,       433,       416
       314,       502,       498,       488
       381,       560,       551,       571
       584,       746,       738,       752
       694,       848,       838,       849
       699,       851,       842,       858
       701,       848,       855,       846
       758,       902,       895,       909
       824,       959,       953,       965
       864,       994,       989,       996
       878,      1005,      1000,      1008
       915,      1034,      1030,      1037
       935,      1049,      1046,      1051
       953,      1061,      1059,      1062
       959,      1064,       105,       106
       965,       110,       111,       109
**HWCOLOR COMP          2    11
*ELEMENT,TYPE=CPS4,ELSET=WingElset
         2,         2,         3,       224,       223
         3,         1,       223,       225,       222
         4,         3,         4,       226,       224
         5,       223,       224,       228,       225
         6,       225,       227,       221,       222
         7,         4,         5,       229,       226
         8,         5,         6,       230,       229
         9,       224,       226,       231,       228
        10,       225,       228,       232,       227
        12,       226,       229,       233,       231
        13,       234,       230,         6,         7
        15,       228,       231,       236,       232
        16,       227,       232,       219,       220
        17,       237,       234,         7,         8
        18,       229,       235,       238,       233
        19,       239,       235,       230,       234
        20,       231,       233,       240,       236
        22,         9,       241,       237,         8
        23,       243,       239,       234,       237
        24,       244,       238,       235,       239
        25,       232,       242,       218,       219
        26,       233,       238,       246,       240
        27,       236,       240,       248,       242
        29,         9,        10,       247,       241
        30,       237,       245,       249,       243
        31,       250,       244,       239,       243
        32,       238,       244,       252,       246
        33,       240,       246,       251,       248
        34,       241,       247,       253,       245
        35,       254,       247,        10,        11
        36,       242,       248,       217,       218
        37,       243,       249,       256,       250
        38,       244,       250,       257,       252
        39,       245,       253,       259,       249
        41,       258,       251,       246,       252
        42,        11,        12,       260,       254
        43,       261,       253,       247,       254
        44,       248,       255,       216,       217
        45,       263,       255,       251,       258
        46,       250,       256,       264,       257
        47,       249,       259,       265,       256
        48,        12,        13,       262,       260
        49,       266,       258,       252,       257
        50,       268,       259,       253,       261
        51,       254,       260,       267,       261
        52,       215,       216,       255,       263
        53,        13,        14,       269,       262
        54,       256,       265,       271,       264
        55,       260,       262,       270,       267
        56,       257,       264,       272,       266
        57,       275,       263,       258,       266
        58,       274,       265,       259,       268
        59,       261,       267,       273,       268
        60,        14,        15,       276,       269
        61,       262,       269,       277,       270
        62,       264,       271,       278,       272
        63,       267,       270,       279,       273
        64,       280,       271,       265,       274
        65,       214,       215,       263,       275
        66,       266,       272,       282,       275
        67,       268,       273,       281,       274
        68,        16,       283,       276,        15
        69,       269,       276,       284,       277
        70,       270,       277,       285,       279
        71,       286,       278,       271,       280
        72,       272,       278,       287,       282
        73,       273,       279,       289,       281
        74,       274,       281,       290,       280
        75,       213,       214,       275,       282
        77,        16,        17,       291,       283
        78,       276,       288,       295,       284
        79,       277,       284,       294,       285
        81,       293,       287,       278,       286
        82,       279,       285,       296,       289
        83,       280,       290,       297,       286
        84,       281,       289,       298,       290
        85,       283,       291,       299,       288
        86,       300,       291,        17,        18
        87,       282,       292,       212,       213
        88,       301,       292,       287,       293
        89,       304,       294,       284,       295
        90,       286,       297,       302,       293
        91,       285,       294,       303,       296
        92,       289,       296,       305,       298
        93,       290,       298,       306,       297
        94,       288,       299,       307,       295
        95,       309,       299,       291,       300
        96,        18,        19,       308,       300
        97,       211,       212,       292,       301
        98,       293,       302,       310,       301
        99,       294,       304,       311,       303
       100,       296,       303,       312,       305
       101,       297,       306,       313,       302
       102,       314,       304,       295,       307
       103,       298,       305,       315,       306
       104,       317,       307,       299,       309
       105,        19,        20,       316,       308
       106,       300,       308,       318,       309
       107,       301,       310,       210,       211
       108,       302,       313,       320,       310
       109,       303,       311,       319,       312
       110,       304,       314,       321,       311
       111,       305,       312,       322,       315
       112,       306,       315,       323,       313
       113,       325,       314,       307,       317
       114,        20,        21,       324,       316
       115,       308,       316,       326,       318
       116,       309,       318,       327,       317
       117,       310,       320,       209,       210
       118,       311,       321,       328,       319
       119,       312,       319,       329,       322
       120,       313,       323,       335,       320
       121,       331,       321,       314,       325
       122,       315,       322,       336,       323
       123,        21,        22,       330,       324
       124,       316,       324,       332,       326
       125,       317,       327,       333,       325
       126,       318,       326,       334,       327
       127,       319,       328,       338,       329
       128,       339,       328,       321,       331
       129,        22,        23,       337,       330
       130,       320,       335,       208,       209
       131,       322,       329,       342,       336
       132,       324,       330,       340,       332
       133,       325,       333,       341,       331
       134,       326,       332,       343,       334
       135,       327,       334,       344,       333
       136,       323,       336,       345,       335
       137,        23,        24,       346,       337
       138,       348,       338,       328,       339
       139,       330,       337,       347,       340
       140,       329,       338,       349,       342
       141,       331,       341,       350,       339
       142,       332,       340,       352,       343
       143,       333,       344,       353,       341
       144,       334,       343,       354,       344
       145,       336,       342,       351,       345
       146,       335,       345,       207,       208
       148,       337,       346,       357,       347
       149,       358,       346,        24,        25
       150,       360,       349,       338,       348
       151,       342,       349,       359,       351
       152,       339,       350,       361,       348
       154,       341,       353,       362,       350
       155,       343,       352,       364,       354
       156,       344,       354,       363,       353
       157,       340,       355,       365,       352
       158,       345,       356,       206,       207
       159,       366,       355,       347,       357
       160,       367,       357,       346,       358
       161,       351,       359,       368,       356
       162,        25,        26,       369,       358
       163,       370,       359,       349,       360
       164,       348,       361,       371,       360
       165,       350,       362,       372,       361
       166,       353,       363,       373,       362
       167,       354,       364,       374,       363
       168,       352,       365,       375,       364
       169,       376,       365,       355,       366
       170,       356,       368,       205,       206
       171,       377,       366,       357,       367
       172,       358,       369,       378,       367
       173,       379,       368,       359,       370
       174,        26,        27,       380,       369
       175,       360,       371,       381,       370
       176,       361,       372,       382,       371
       177,       362,       373,       383,       372
       178,       363,       374,       384,       373
       179,       364,       375,       385,       374
       180,       365,       376,       386,       375
       181,       387,       376,       366,       377
       182,       367,       378,       388,       377
       183,       204,       205,       368,       379
       184,       369,       380,       389,       378
       185,       370,       381,       391,       379
       186,        27,        28,       390,       380
       187,       371,       382,       392,       381
       188,       372,       383,       393,       382
       189,       373,       384,       394,       383
       190,       374,       385,       395,       384
       191,       375,       386,       396,       385
       192,       397,       386,       376,       387
       193,       377,       388,       398,       387
       194,       378,       389,       399,       388
       195,       380,       390,       400,       389
       196,       379,       391,       203,       204
       197,        28,        29,       401,       390
       198,       381,       392,       402,       391
       199,       382,       393,       403,       392
       200,       383,       394,       405,       393
       201,       384,       395,       404,       394
       202,       385,       396,       406,       395
       203,       407,       396,       386,       397
       204,       387,       398,       408,       397
       205,       388,       399,       409,       398
       206,       389,       400,       410,       399
       207,       390,       401,       411,       400
       208,        29,        30,       412,       401
       209,       391,       402,       202,       203
       210,       392,       403,       415,       402
       211,       394,       404,       413,       405
       212,       395,       406,       414,       404
       213,       393,       405,       416,       403
       214,       417,       406,       396,       407
       215,       397,       408,       418,       407
       216,       398,       409,       419,       408
       217,       399,       410,       420,       409
       218,       400,       411,       421,       410
       219,       401,       412,       422,       411
       220,       423,       412,        30,        31
       221,       402,       415,       201,       202
       222,       404,       414,       424,       413
       223,       405,       413,       425,       416
       224,       426,       414,       406,       417
       225,       403,       416,       427,       415
       226,       407,       418,       428,       417
       227,       408,       419,       429,       418
       228,       409,       420,       430,       419
       229,       410,       421,       431,       420
       230,       411,       422,       432,       421
       231,       434,       422,       412,       423
       232,       435,       423,        31,        32
       234,       413,       424,       436,       425
       235,       437,       424,       414,       426
       236,       417,       428,       438,       426
       237,       415,       427,       200,       201
       238,       418,       429,       439,       428
       239,       416,       433,       441,       427
       240,       419,       430,       440,       429
       241,       420,       431,       442,       430
       242,       421,       432,       443,       431
       243,       444,       432,       422,       434
       244,       447,       434,       423,       435
       245,       425,       436,       445,       433
       246,        32,        33,       448,       435
       247,       446,       436,       424,       437
       248,       426,       438,       449,       437
       249,       428,       439,       450,       438
       250,       427,       441,       199,       200
       251,       429,       440,       451,       439
       252,       430,       442,       452,       440
       253,       431,       443,       453,       442
       254,       433,       445,       454,       441
       255,       455,       443,       432,       444
       256,       457,       444,       434,       447
       257,       456,       445,       436,       446
       258,       435,       448,       459,       447
       259,       437,       449,       458,       446
       260,       460,       448,        33,        34
       261,       438,       450,       461,       449
       262,       439,       451,       462,       450
       263,       440,       452,       463,       451
       264,       441,       454,       198,       199
       265,       442,       453,       464,       452
       266,       466,       453,       443,       455
       267,       465,       454,       445,       456
       268,       468,       455,       444,       457
       269,       446,       458,       467,       456
       270,       447,       459,       469,       457
       271,       471,       459,       448,       460
       272,       449,       461,       470,       458
       273,       472,       460,        34,        35
       274,       450,       462,       473,       461
       275,       451,       463,       474,       462
       276,       452,       464,       475,       463
       277,       197,       198,       454,       465
       278,       476,       464,       453,       466
       279,       456,       467,       477,       465
       280,       478,       466,       455,       468
       281,       457,       469,       480,       468
       282,       458,       470,       479,       467
       283,       481,       469,       459,       471
       284,       483,       471,       460,       472
       285,       461,       473,       482,       470
       286,       484,       472,        35,        36
       287,       462,       474,       485,       473
       288,       463,       475,       486,       474
       289,       464,       476,       487,       475
       290,       465,       477,       196,       197
       291,       488,       476,       466,       478
       292,       467,       479,       489,       477
       293,       468,       480,       490,       478
       294,       492,       480,       469,       481
       295,       470,       482,       491,       479
       296,       493,       481,       471,       483
       297,       494,       483,       472,       484
       298,       496,       484,        36,        37
       299,       473,       485,       495,       482
       300,       474,       486,       497,       485
       301,       475,       487,       499,       486
       302,       488,       498,       487,       476
       303,       477,       489,       195,       196
       304,       478,       490,       501,       488
       305,       479,       491,       500,       489
       306,       503,       490,       480,       492
       307,       482,       495,       504,       491
       308,       506,       492,       481,       493
       309,       505,       493,       483,       494
       310,       507,       494,       484,       496
       311,       509,       496,        37,        38
       312,       508,       495,       485,       497
       313,       486,       499,       510,       497
       315,       487,       498,       511,       499
       316,       489,       500,       194,       195
       317,       488,       501,       513,       502
       318,       514,       501,       490,       503
       319,       491,       504,       512,       500
       320,       519,       503,       492,       506
       321,       517,       506,       493,       505
       322,       516,       504,       495,       508
       323,       518,       505,       494,       507
       324,       498,       502,       515,       511
       325,       520,       507,       496,       509
       326,       521,       508,       497,       510
       327,       522,       509,        38,        39
       328,       499,       511,       523,       510
       329,       500,       512,       193,       194
       330,       525,       513,       501,       514
       331,       502,       513,       528,       515
       332,       524,       512,       504,       516
       333,       531,       514,       503,       519
       334,       526,       517,       505,       518
       335,       527,       519,       506,       517
       336,       529,       518,       507,       520
       337,       530,       516,       508,       521
       338,       532,       520,       509,       522
       339,       511,       515,       534,       523
       340,       533,       521,       510,       523
       341,        39,        40,       535,       522
       342,       192,       193,       512,       524
       343,       541,       528,       513,       525
       344,       536,       524,       516,       530
       345,       542,       525,       514,       531
       346,       537,       527,       517,       526
       347,       538,       526,       518,       529
       348,       539,       531,       519,       527
       349,       540,       529,       520,       532
       350,       515,       528,       545,       534
       351,       543,       530,       521,       533
       352,       544,       533,       523,       534
       353,       522,       535,       546,       532
       354,        40,        41,       547,       535
       355,       191,       192,       524,       536
       356,       548,       537,       526,       538
       357,       549,       539,       527,       537
       358,       550,       538,       529,       540
       359,       552,       542,       531,       539
       360,       553,       536,       530,       543
       361,       554,       541,       525,       542
       362,       528,       541,       556,       545
       363,       532,       546,       551,       540
       364,       555,       543,       533,       544
       365,       534,       545,       557,       544
       366,       535,       547,       558,       546
       367,        41,        42,       559,       547
       368,       540,       551,       560,       550
       369,       561,       549,       537,       548
       370,       562,       548,       538,       550
       371,       563,       552,       539,       549
       372,       190,       191,       536,       553
       373,       564,       554,       542,       552
       374,       565,       553,       543,       555
       375,       541,       554,       566,       556
       376,       544,       557,       567,       555
       377,       568,       557,       545,       556
       378,       571,       551,       546,       558
       379,       569,       559,        42,        43
       380,       547,       559,       570,       558
       382,       550,       560,       572,       562
       383,       573,       561,       548,       562
       384,       574,       563,       549,       561
       385,       575,       564,       552,       563
       386,       189,       190,       553,       565
       387,       576,       566,       554,       564
       388,       555,       567,       578,       565
       389,       577,       568,       556,       566
       390,       579,       567,       557,       568
       391,       580,       569,        43,        44
       392,       581,       570,       559,       569
       393,       558,       570,       582,       571
       394,       583,       572,       560,       571
       395,       562,       572,       584,       573
       396,       585,       574,       561,       573
       397,       586,       575,       563,       574
       398,       587,       576,       564,       575
       399,       565,       578,       188,       189
       400,       588,       577,       566,       576
       401,       589,       579,       568,       577
       402,       590,       578,       567,       579
       403,       591,       580,        44,        45
       404,       592,       581,       569,       580
       405,       593,       582,       570,       581
       406,       594,       583,       571,       582
       407,       595,       584,       572,       583
       408,       573,       584,       596,       585
       409,       597,       586,       574,       585
       410,       598,       587,       575,       586
       411,       599,       588,       576,       587
       412,       600,       589,       577,       588
       413,       187,       188,       578,       590
       414,       601,       590,       579,       589
       415,       602,       591,        45,        46
       416,       603,       592,       580,       591
       417,       604,       593,       581,       592
       418,       605,       594,       582,       593
       419,       606,       595,       583,       594
       420,       607,       596,       584,       595
       421,       585,       596,       608,       597
       422,       609,       598,       586,       597
       423,       610,       599,       587,       598
       424,       611,       600,       588,       599
       425,       612,       601,       589,       600
       426,       186,       187,       590,       601
       427,        46,        47,       613,       602
       428,       614,       603,       591,       602
       429,       615,       604,       592,       603
       430,       616,       605,       593,       604
       431,       617,       606,       594,       605
       432,       618,       607,       595,       606
       433,       619,       608,       596,       607
       434,       597,       608,       620,       609
       435,       621,       610,       598,       609
       436,       622,       611,       599,       610
       437,       623,       612,       600,       611
       438,       185,       186,       601,       612
       439,       625,       613,        47,        48
       440,       602,       613,       624,       614
       441,       626,       615,       603,       614
       442,       627,       616,       604,       615
       443,       628,       617,       605,       616
       444,       629,       618,       606,       617
       445,       630,       619,       607,       618
       446,       631,       620,       608,       619
       447,       609,       620,       632,       621
       448,       633,       622,       610,       621
       449,       634,       623,       611,       622
       450,       184,       185,       612,       623
       451,       635,       624,       613,       625
       452,       614,       624,       636,       626
       453,       637,       625,        48,        49
       454,       638,       627,       615,       626
       455,       639,       628,       616,       627
       456,       640,       629,       617,       628
       457,       641,       630,       618,       629
       458,       642,       631,       619,       630
       459,       620,       631,       643,       632
       460,       621,       632,       644,       633
       461,       645,       634,       622,       633
       462,       183,       184,       623,       634
       463,       624,       635,       646,       636
       464,       647,       635,       625,       637
       465,       626,       636,       648,       638
       466,       650,       637,        49,        50
       467,       649,       639,       627,       638
       468,       651,       640,       628,       639
       469,       652,       641,       629,       640
       470,       653,       642,       630,       641
       471,       631,       642,       654,       643
       472,       655,       644,       632,       643
       473,       633,       644,       656,       645
       474,       182,       183,       634,       645
       475,       635,       647,       657,       646
       476,       658,       648,       636,       646
       477,       638,       648,       659,       649
       478,       660,       647,       637,       650
       479,       662,       650,        50,        51
       480,       661,       651,       639,       649
       481,       663,       652,       640,       651
       482,       664,       653,       641,       652
       483,       665,       654,       642,       653
       484,       666,       655,       643,       654
       485,       667,       656,       644,       655
       486,       645,       656,       181,       182
       487,       668,       658,       646,       657
       488,       669,       659,       648,       658
       489,       671,       657,       647,       660
       490,       649,       659,       670,       661
       491,       673,       660,       650,       662
       492,       672,       663,       651,       661
       493,       674,       662,        51,        52
       494,       675,       664,       652,       663
       495,       676,       665,       653,       664
       496,       677,       666,       654,       665
       497,       678,       667,       655,       666
       498,       656,       667,       180,       181
       499,       679,       669,       658,       668
       500,       659,       669,       680,       670
       501,       681,       668,       657,       671
       502,       661,       670,       682,       672
       503,       683,       671,       660,       673
       504,       685,       673,       662,       674
       505,       684,       675,       663,       672
       506,       686,       674,        52,        53
       507,       687,       676,       664,       675
       508,       688,       677,       665,       676
       509,       689,       678,       666,       677
       510,       667,       678,       179,       180
       511,       669,       679,       690,       680
       512,       692,       679,       668,       681
       513,       691,       682,       670,       680
       514,       694,       681,       671,       683
       515,       672,       682,       693,       684
       516,       696,       683,       673,       685
       517,       695,       687,       675,       684
       518,       697,       685,       674,       686
       519,        53,        54,       699,       686
       520,       698,       688,       676,       687
       521,       700,       689,       677,       688
       522,       178,       179,       678,       689
       523,       701,       691,       680,       690
       524,       703,       690,       679,       692
       525,       702,       693,       682,       691
       526,       705,       692,       681,       694
       527,       684,       693,       704,       695
       528,       707,       694,       683,       696
       529,       708,       696,       685,       697
       530,       706,       698,       687,       695
       531,       686,       699,       709,       697
       532,       711,       699,        54,        55
       533,       710,       700,       688,       698
       534,       177,       178,       689,       700
       535,       712,       701,       690,       703
       536,       713,       702,       691,       701
       537,       693,       702,       714,       704
       538,       716,       703,       692,       705
       539,       695,       704,       715,       706
       540,       717,       705,       694,       707
       541,       719,       707,       696,       708
       542,       718,       710,       698,       706
       543,       697,       709,       720,       708
       544,       721,       709,       699,       711
       545,       722,       711,        55,        56
       546,       176,       177,       700,       710
       547,       723,       713,       701,       712
       548,       702,       713,       725,       714
       549,       724,       712,       703,       716
       550,       726,       715,       704,       714
       551,       706,       715,       727,       718
       552,       728,       716,       705,       717
       553,       729,       717,       707,       719
       554,       175,       176,       710,       718
       555,       708,       720,       730,       719
       556,       709,       721,       731,       720
       557,       732,       721,       711,       722
       558,       722,        56,        57,       733
       559,       734,       723,       712,       724
       560,       735,       725,       713,       723
       561,       736,       726,       714,       725
       562,       737,       727,       715,       726
       563,       738,       724,       716,       728
       564,       718,       727,       174,       175
       565,       739,       728,       717,       729
       566,       719,       730,       740,       729
       567,       741,       730,       720,       731
       568,       721,       732,       742,       731
       569,       732,       722,       733,       743
       570,       733,        57,        58,       744
       571,       745,       735,       723,       734
       572,       747,       736,       725,       735
       573,       746,       734,       724,       738
       574,       748,       737,       726,       736
       575,       727,       737,       173,       174
       576,       752,       738,       728,       739
       577,       729,       740,       749,       739
       578,       750,       740,       730,       741
       579,       751,       741,       731,       742
       580,       743,       753,       742,       732
       581,       743,       733,       744,       754
       582,       744,        58,        59,       755
       583,       756,       745,       734,       746
       585,       757,       747,       735,       745
       586,       758,       748,       736,       747
       587,       737,       748,       172,       173
       588,       740,       750,       759,       749
       589,       739,       749,       761,       752
       590,       760,       750,       741,       751
       591,       751,       742,       753,       762
       592,       754,       763,       753,       743
       593,       754,       744,       755,       765
       594,       755,        59,        60,       766
       595,       756,       746,       752,       764
       596,       767,       757,       745,       756
       597,       768,       758,       747,       757
       598,       171,       172,       748,       758
       599,       770,       761,       749,       759
       600,       750,       760,       769,       759
       601,       760,       751,       762,       771
       602,       752,       761,       772,       764
       603,       762,       753,       763,       773
       604,       765,       774,       763,       754
       605,       765,       755,       766,       775
       606,       766,        60,        61,       776
       607,       777,       767,       756,       764
       608,       778,       768,       757,       767
       609,       170,       171,       758,       768
       610,       779,       770,       759,       769
       611,       771,       780,       769,       760
       612,       781,       772,       761,       770
       613,       771,       762,       773,       782
       614,       773,       763,       774,       784
       615,       764,       772,       783,       777
       616,       775,       785,       774,       765
       617,       775,       766,       776,       786
       618,       776,        61,        62,       787
       619,       788,       778,       767,       777
       620,       169,       170,       768,       778
       621,       780,       789,       779,       769
       622,       790,       781,       770,       779
       623,       782,       791,       780,       771
       624,       772,       781,       792,       783
       625,       782,       773,       784,       793
       626,       784,       774,       785,       794
       627,       786,       797,       785,       775
       628,       777,       783,       795,       788
       629,       786,       776,       787,       798
       630,       787,        62,        63,       796
       631,       168,       169,       778,       788
       632,       790,       779,       789,       799
       633,       791,       800,       789,       780
       634,       781,       790,       801,       792
       635,       791,       782,       793,       802
       636,       803,       795,       783,       792
       637,       793,       784,       794,       806
       638,       794,       785,       797,       807
       639,       798,       787,       796,       804
       640,       796,        63,        64,       805
       641,       798,       808,       797,       786
       642,       788,       795,       167,       168
       643,       799,       789,       800,       809
       644,       799,       810,       801,       790
       645,       800,       791,       802,       811
       646,       812,       803,       792,       801
       647,       806,       815,       802,       793
       648,       804,       796,       805,       813
       649,       166,       167,       795,       803
       650,       804,       814,       808,       798
       651,       806,       794,       807,       817
       652,       805,        64,        65,       816
       653,       807,       797,       808,       818
       654,       809,       819,       810,       799
       655,       809,       800,       811,       820
       656,       810,       821,       812,       801
       657,       165,       166,       803,       812
       658,       815,       825,       811,       802
       659,       813,       822,       814,       804
       660,       813,       805,       816,       823
       661,       818,       808,       814,       824
       662,       817,       826,       815,       806
       663,       817,       807,       818,       827
       664,       816,        65,        66,       828
       665,       819,       809,       820,       829
       666,       819,       830,       821,       810
       667,       165,       812,       821,       164
       668,       823,       831,       822,       813
       669,       820,       811,       825,       833
       670,       824,       814,       822,       832
       671,       827,       818,       824,       834
       672,       826,       835,       825,       815
       673,       823,       816,       828,       836
       674,       826,       817,       827,       837
       675,       828,        66,        67,       838
       676,       830,       819,       829,       840
       677,       164,       821,       830,       163
       678,       832,       822,       831,       841
       679,       833,       842,       829,       820
       680,       836,       839,       831,       823
       681,       834,       824,       832,       843
       682,       833,       825,       835,       845
       683,       837,       827,       834,       844
       684,       835,       826,       837,       847
       685,       836,       828,       838,       848
       686,       838,        67,        68,       849
       687,       841,       831,       839,       850
       688,       842,       851,       840,       829
       689,       163,       830,       840,       162
       690,       843,       832,       841,       852
       691,       836,       848,       846,       839
       692,       844,       834,       843,       853
       693,       858,       842,       833,       845
       695,       847,       837,       844,       854
       696,       845,       835,       847,       857
       697,       850,       839,       846,       856
       698,       849,        68,        69,       860
       700,       852,       841,       850,       859
       702,       162,       840,       851,       161
       703,       853,       843,       852,       862
       704,       848,       849,       861,       855
       705,       854,       844,       853,       863
       706,       855,       864,       856,       846
       707,       854,       865,       857,       847
       708,       858,       845,       857,       867
       709,       859,       850,       856,       866
       710,       860,        69,        70,       868
       711,       161,       851,       858,       160
       712,       861,       849,       860,       870
       713,       862,       852,       859,       869
       714,       863,       853,       862,       872
       715,       864,       855,       861,       871
       716,       863,       873,       865,       854
       717,       866,       856,       864,       874
       718,       867,       857,       865,       875
       719,       160,       858,       867,       159
       720,       869,       859,       866,       876
       721,       868,        70,        71,       877
       722,       870,       860,       868,       878
       723,       871,       861,       870,       880
       724,       872,       862,       869,       879
       725,       872,       881,       873,       863
       726,       874,       864,       871,       882
       727,       875,       865,       873,       883
       728,       876,       866,       874,       884
       729,       159,       867,       875,       158
       730,        72,       886,       877,        71
       731,       879,       869,       876,       885
       732,       878,       868,       877,       887
       733,       880,       870,       878,       888
       734,       881,       872,       879,       889
       735,       882,       871,       880,       890
       736,       883,       873,       881,       891
       737,       884,       874,       882,       892
       738,       158,       875,       883,       157
       739,       885,       876,       884,       893
       740,       886,       894,       887,       877
       741,        73,       895,       886,        72
       742,       888,       878,       887,       897
       743,       889,       879,       885,       896
       744,       890,       880,       888,       898
       745,       891,       881,       889,       899
       746,       892,       882,       890,       900
       747,       157,       883,       891,       156
       748,       893,       884,       892,       901
       749,       895,       902,       894,       886
       750,       896,       885,       893,       904
       751,       897,       887,       894,       903
       752,       898,       888,       897,       905
       753,       909,       895,        73,        74
       754,       899,       889,       896,       906
       755,       900,       890,       898,       907
       756,       156,       891,       899,       155
       757,       901,       892,       900,       908
       759,       904,       893,       901,       911
       760,       903,       894,       902,       910
       761,       905,       897,       903,       912
       762,       906,       896,       904,       913
       763,       907,       898,       905,       914
       764,       909,        74,        75,       915
       765,       155,       899,       906,       154
       766,       908,       900,       907,       916
       767,       911,       901,       908,       918
       768,       910,       902,       909,       917
       769,       912,       903,       910,       919
       770,       913,       904,       911,       920
       771,       914,       905,       912,       921
       772,       154,       906,       913,       153
       773,       915,        75,        76,       923
       774,       916,       907,       914,       922
       775,       917,       909,       915,       924
       776,       918,       908,       916,       925
       777,       919,       910,       917,       926
       778,       920,       911,       918,       927
       779,       921,       912,       919,       928
       780,       153,       913,       920,       152
       781,       922,       914,       921,       929
       782,       923,        76,        77,       930
       783,       924,       915,       923,       932
       784,       925,       916,       922,       931
       785,       926,       917,       924,       933
       786,       927,       918,       925,       934
       787,       928,       919,       926,       935
       788,       152,       920,       927,       151
       789,       929,       921,       928,       936
       790,       931,       922,       929,       937
       791,       930,        77,        78,       938
       792,       932,       923,       930,       939
       793,       933,       924,       932,       940
       794,       934,       925,       931,       941
       795,       935,       926,       933,       942
       796,       151,       927,       934,       150
       797,       936,       928,       935,       943
       798,       937,       929,       936,       944
       799,       938,        78,        79,       945
       800,       941,       931,       937,       946
       801,       939,       930,       938,       947
       802,       940,       932,       939,       948
       803,       942,       933,       940,       949
       804,       150,       934,       941,       149
       805,       943,       935,       942,       950
       806,       944,       936,       943,       951
       807,       946,       937,       944,       954
       808,       947,       938,       945,       952
       809,       945,        79,        80,       953
       810,       948,       939,       947,       955
       811,       149,       941,       946,       148
       812,       949,       940,       948,       956
       813,       950,       942,       949,       957
       814,       951,       943,       950,       958
       815,       954,       944,       951,       960
       816,       952,       945,       953,       959
       817,       955,       947,       952,       961
       818,       148,       946,       954,       147
       819,       965,       953,        80,        81
       820,       956,       948,       955,       962
       821,       957,       949,       956,       963
       822,       958,       950,       957,       964
       823,       960,       951,       958,       966
       825,       961,       952,       959,       967
       826,       147,       954,       960,       146
       827,       962,       955,       961,       968
       828,       963,       956,       962,       969
       829,        82,       971,       965,        81
       830,       964,       957,       963,       970
       831,       966,       958,       964,       972
       832,       967,       959,       965,       973
       833,       146,       960,       966,       145
       834,       968,       961,       967,       974
       835,       969,       962,       968,       976
       836,       970,       963,       969,       975
       837,        83,       978,       971,        82
       838,       972,       964,       970,       977
       839,       971,       979,       973,       965
       840,       145,       966,       972,       144
       841,       974,       967,       973,       980
       842,       976,       968,       974,       981
       843,       975,       969,       976,       983
       844,       977,       970,       975,       982
       845,        84,       984,       978,        83
       846,       144,       972,       977,       143
       847,       978,       985,       979,       971
       848,       979,       986,       980,       973
       849,       981,       974,       980,       988
       850,       982,       975,       983,       987
       851,       983,       976,       981,       989
       852,       143,       977,       982,       142
       853,        85,       990,       984,        84
       854,       984,       991,       985,       978
       855,       985,       992,       986,       979
       856,       986,       993,       988,       980
       857,       142,       982,       987,       141
       858,       987,       983,       989,       994
       859,       989,       981,       988,       996
       860,        86,       995,       990,        85
       861,       990,       997,       991,       984
       862,       991,       998,       992,       985
       863,       992,       999,       993,       986
       865,       141,       987,       994,       140
       866,       993,      1001,       996,       988
       867,       995,        86,        87,      1000
       868,       995,      1002,       997,       990
       869,       997,      1003,       998,       991
       870,       140,       994,       996,       139
       871,       998,      1004,       999,       992
       872,       999,      1006,      1001,       993
       873,      1002,       995,      1000,      1005
       874,      1008,      1000,        87,        88
       875,      1002,      1007,      1003,       997
       876,      1001,       138,       139,       996
       877,      1003,      1009,      1004,       998
       879,      1004,      1010,      1006,       999
       880,      1005,      1011,      1007,      1002
       881,      1006,       137,       138,      1001
       882,        89,      1013,      1008,        88
       883,      1007,      1012,      1009,      1003
       884,      1008,      1014,      1011,      1005
       885,      1009,      1015,      1010,      1004
       886,      1010,       136,       137,      1006
       887,      1011,      1016,      1012,      1007
       888,        90,      1017,      1013,        89
       889,      1012,      1018,      1015,      1009
       890,      1013,      1019,      1014,      1008
       891,      1015,       135,       136,      1010
       892,      1014,      1020,      1016,      1011
       893,      1016,      1021,      1018,      1012
       894,        91,      1022,      1017,        90
       895,      1017,      1023,      1019,      1013
       896,       135,      1015,      1018,       134
       897,      1020,      1014,      1019,      1024
       898,      1020,      1025,      1021,      1016
       899,        92,      1026,      1022,        91
       900,       134,      1018,      1021,       133
       901,      1022,      1027,      1023,      1017
       902,      1024,      1019,      1023,      1028
       903,      1024,      1029,      1025,      1020
       904,       133,      1021,      1025,       132
       905,      1026,        92,        93,      1030
       906,      1026,      1031,      1027,      1022
       907,      1028,      1023,      1027,      1032
       908,      1028,      1033,      1029,      1024
       909,      1029,       131,       132,      1025
       910,      1031,      1026,      1030,      1034
       911,      1031,      1035,      1032,      1027
       912,      1037,      1030,        93,        94
       913,      1032,      1036,      1033,      1028
       914,      1033,       130,       131,      1029
       916,      1034,      1038,      1035,      1031
       917,      1035,      1039,      1036,      1032
       918,        95,      1040,      1037,        94
       919,      1036,       129,       130,      1033
       920,      1037,      1041,      1038,      1034
       921,      1038,      1042,      1039,      1035
       922,      1039,       128,       129,      1036
       923,        96,      1043,      1040,        95
       924,      1040,      1044,      1041,      1037
       925,      1041,      1045,      1042,      1038
       926,      1042,       127,       128,      1039
       927,        97,      1046,      1043,        96
       928,      1043,      1047,      1044,      1040
       929,      1044,      1048,      1045,      1041
       930,      1045,       126,       127,      1042
       931,      1046,      1049,      1047,      1043
       932,      1051,      1046,        97,        98
       933,      1047,      1050,      1048,      1044
       934,      1048,       125,       126,      1045
       936,      1049,      1052,      1050,      1047
       937,      1050,       124,       125,      1048
       938,        99,      1053,      1051,        98
       939,      1051,      1054,      1052,      1049
       940,      1052,       123,       124,      1050
       941,       100,      1055,      1053,        99
       942,      1053,      1056,      1054,      1051
       943,      1054,       122,       123,      1052
       944,      1055,       100,       101,      1057
       945,      1055,      1058,      1056,      1053
       946,       122,      1054,      1056,       121
       947,       102,      1059,      1057,       101
       948,      1058,      1055,      1057,      1060
       949,       121,      1056,      1058,       120
       950,      1059,      1061,      1060,      1057
       951,       120,      1058,      1060,       119
       952,      1062,      1059,       102,       103
       954,       119,      1060,      1061,       118
       955,      1062,       103,       104,      1063
       956,       118,      1061,      1062,       117
       957,      1063,       104,       105,      1064
       958,       117,      1062,      1063,       116
       960,       116,      1063,      1064,       115
       961,       115,      1064,       106,       114
       962,       107,       113,       114,       106
       963,       112,       113,       107,       108
       964,       111,       112,       108,       109
**HM_PROP_ID          1
*Elset, elset=WingElset, generate
 1,965,1
** Section
*Shell Section, ELSET=WingElset, Material=material1
10.0      ,
*End Part
** 
** MATERIALS
** 
*Material, name=material1
*DENSITY
10.0      ,0.0       
*ELASTIC, TYPE = ISOTROPIC
2.1000E+09,0.3       ,0.0       
**
*Nset, nset=_PICKEDSET205, internal, instance=PART-1-1
  1, 2, 3, 219, 220, 221, 222
*Nset, nset=SET-191, instance=PART-1-1
 110,
**HMNAME MATS          1 material1     6
**HWNAME LOADCOL          1 auto2
**HWCOLOR LOADCOL          1    17
*BOUNDARY
_PICKEDSET205, ENCASTRE
*Step,
*Cload
SET-191, 1, 100.
*End Step
