*Heading
** Job name: Job-homo-test Model name: Job-1
** Generated by: Abaqus/CAE 6.14-2
*Preprint, echo=NO, model=NO, history=NO, contact=NO
**
** PARTS
**
*Part, name=PART-1-1
*Node
      1,           0.,           0.,           0.
      2,           0.,           0.,           5.
      3,           5.,           0.,           5.
      4,           5.,           0.,           0.
      5,          2.5,   1.90903175,           0.
      6,          2.5,   1.90903175,           5.
      7,         1.25,   0.99989152,           5.
      8,         1.25,   0.99989152,           0.
      9,         -2.5,   1.90903175,           0.
     10,         -2.5,   1.90903175,           5.
     11,          -4.,           3.,           5.
     12,          -4.,           3.,           0.
     13,          -5.,           3.,           5.
     14,          -5.,           0.,           5.
     15,          -5.,           0.,           0.
     16,          -5.,           3.,           0.
     17,           5.,           3.,           5.
     18,           5.,           3.,           0.
     19,           4.,           3.,           5.
     20,           4.,           3.,           0.
     21,           0.,   0.99989152,           5.
     22,           0.,   0.99989152,           0.
     23,        -1.25,   0.99989152,           5.
     24,        -1.25,   0.99989152,           0.
     25,         -2.5,           3.,           5.
     26,         -2.5,           3.,           0.
     27,          2.5,           3.,           5.
     28,          2.5,           3.,           0.
     29,           0.,           0.,         1.25
     30,           0.,           0.,          2.5
     31,           0.,           0.,         3.75
     32,  0.833333313,           0.,           5.
     33,   1.66666663,           0.,           5.
     34,          2.5,           0.,           5.
     35,   3.33333325,           0.,           5.
     36,   4.16666651,           0.,           5.
     37,           5.,           0.,         3.75
     38,           5.,           0.,          2.5
     39,           5.,           0.,         1.25
     40,   4.16666651,           0.,           0.
     41,   3.33333325,           0.,           0.
     42,          2.5,           0.,           0.
     43,   1.66666663,           0.,           0.
     44,  0.833333313,           0.,           0.
     45,          2.5,   1.90903175,         1.25
     46,          2.5,   1.90903175,          2.5
     47,          2.5,   1.90903175,         3.75
     48,        1.875,   1.45446157,           5.
     49,         1.25,   0.99989152,         3.75
     50,         1.25,   0.99989152,          2.5
     51,         1.25,   0.99989152,         1.25
     52,        1.875,   1.45446157,           0.
     53,         -2.5,   1.90903175,         1.25
     54,         -2.5,   1.90903175,          2.5
     55,         -2.5,   1.90903175,         3.75
     56,          -3.,   2.27268791,           5.
     57,         -3.5,   2.63634396,           5.
     58,          -4.,           3.,         3.75
     59,          -4.,           3.,          2.5
     60,          -4.,           3.,         1.25
     61,         -3.5,   2.63634396,           0.
     62,          -3.,   2.27268791,           0.
     63,          -5.,         2.25,           5.
     64,          -5.,          1.5,           5.
     65,          -5.,         0.75,           5.
     66,          -5.,           0.,         3.75
     67,          -5.,           0.,          2.5
     68,          -5.,           0.,         1.25
     69,          -5.,         0.75,           0.
     70,          -5.,          1.5,           0.
     71,          -5.,         2.25,           0.
     72,          -5.,           3.,         1.25
     73,          -5.,           3.,          2.5
     74,          -5.,           3.,         3.75
     75, -0.833333313,           0.,           0.
     76,  -1.66666663,           0.,           0.
     77,         -2.5,           0.,           0.
     78,  -3.33333325,           0.,           0.
     79,  -4.16666651,           0.,           0.
     80,  -4.16666651,           0.,           5.
     81,  -3.33333325,           0.,           5.
     82,         -2.5,           0.,           5.
     83,  -1.66666663,           0.,           5.
     84, -0.833333313,           0.,           5.
     85,           5.,         0.75,           5.
     86,           5.,          1.5,           5.
     87,           5.,         2.25,           5.
     88,           5.,           3.,         3.75
     89,           5.,           3.,          2.5
     90,           5.,           3.,         1.25
     91,           5.,         2.25,           0.
     92,           5.,          1.5,           0.
     93,           5.,         0.75,           0.
     94,           4.,           3.,         3.75
     95,           4.,           3.,          2.5
     96,           4.,           3.,         1.25
     97,           3.,   2.27268791,           0.
     98,          3.5,   2.63634396,           0.
     99,          3.5,   2.63634396,           5.
    100,           3.,   2.27268791,           5.
    101,        0.625,   0.99989152,           5.
    102,           0.,   0.99989152,         3.75
    103,           0.,   0.99989152,          2.5
    104,           0.,   0.99989152,         1.25
    105,        0.625,   0.99989152,           0.
    106,       -0.625,   0.99989152,           5.
    107,        -1.25,   0.99989152,         3.75
    108,        -1.25,   0.99989152,          2.5
    109,        -1.25,   0.99989152,         1.25
    110,       -0.625,   0.99989152,           0.
    111,       -1.875,   1.45446157,           0.
    112,       -1.875,   1.45446157,           5.
    113,         -2.5,   2.45451593,           5.
    114,         -2.5,           3.,         3.75
    115,         -2.5,           3.,          2.5
    116,         -2.5,           3.,         1.25
    117,         -2.5,   2.45451593,           0.
    118,        -3.25,           3.,           5.
    119,        -3.25,           3.,           0.
    120,           0.,   0.49994576,           5.
    121,           0.,   0.49994576,           0.
    122,          2.5,   2.45451593,           5.
    123,          2.5,           3.,         3.75
    124,          2.5,           3.,          2.5
    125,          2.5,           3.,         1.25
    126,          2.5,   2.45451593,           0.
    127,         3.25,           3.,           5.
    128,         3.25,           3.,           0.
    129,  0.833333313,           0.,         1.25
    130,  0.833333313,           0.,          2.5
    131,  0.833333313,           0.,         3.75
    132,   1.66666663,           0.,         1.25
    133,   1.66666663,           0.,          2.5
    134,   1.66666663,           0.,         3.75
    135,          2.5,           0.,         1.25
    136,          2.5,           0.,          2.5
    137,          2.5,           0.,         3.75
    138,   3.33333325,           0.,         1.25
    139,   3.33333325,           0.,          2.5
    140,   3.33333325,           0.,         3.75
    141,   4.16666651,           0.,         1.25
    142,   4.16666651,           0.,          2.5
    143,   4.16666651,           0.,         3.75
    144,        1.875,   1.45446157,         1.25
    145,        1.875,   1.45446157,          2.5
    146,        1.875,   1.45446157,         3.75
    147,          -3.,   2.27268791,         1.25
    148,          -3.,   2.27268791,          2.5
    149,          -3.,   2.27268791,         3.75
    150,         -3.5,   2.63634396,         1.25
    151,         -3.5,   2.63634396,          2.5
    152,         -3.5,   2.63634396,         3.75
    153,          -5.,         2.25,         3.75
    154,          -5.,          1.5,         3.75
    155,          -5.,         0.75,         3.75
    156,          -5.,         2.25,          2.5
    157,          -5.,          1.5,          2.5
    158,          -5.,         0.75,          2.5
    159,          -5.,         2.25,         1.25
    160,          -5.,          1.5,         1.25
    161,          -5.,         0.75,         1.25
    162, -0.833333313,           0.,         3.75
    163, -0.833333313,           0.,          2.5
    164, -0.833333313,           0.,         1.25
    165,  -1.66666663,           0.,         3.75
    166,  -1.66666663,           0.,          2.5
    167,  -1.66666663,           0.,         1.25
    168,         -2.5,           0.,         3.75
    169,         -2.5,           0.,          2.5
    170,         -2.5,           0.,         1.25
    171,  -3.33333325,           0.,         3.75
    172,  -3.33333325,           0.,          2.5
    173,  -3.33333325,           0.,         1.25
    174,  -4.16666651,           0.,         3.75
    175,  -4.16666651,           0.,          2.5
    176,  -4.16666651,           0.,         1.25
    177,           5.,         0.75,         3.75
    178,           5.,          1.5,         3.75
    179,           5.,         2.25,         3.75
    180,           5.,         0.75,          2.5
    181,           5.,          1.5,          2.5
    182,           5.,         2.25,          2.5
    183,           5.,         0.75,         1.25
    184,           5.,          1.5,         1.25
    185,           5.,         2.25,         1.25
    186,           3.,   2.27268791,         3.75
    187,           3.,   2.27268791,          2.5
    188,           3.,   2.27268791,         1.25
    189,          3.5,   2.63634396,         3.75
    190,          3.5,   2.63634396,          2.5
    191,          3.5,   2.63634396,         1.25
    192,        0.625,   0.99989152,         3.75
    193,        0.625,   0.99989152,          2.5
    194,        0.625,   0.99989152,         1.25
    195,       -0.625,   0.99989152,         3.75
    196,       -0.625,   0.99989152,          2.5
    197,       -0.625,   0.99989152,         1.25
    198,       -1.875,   1.45446157,         3.75
    199,       -1.875,   1.45446157,          2.5
    200,       -1.875,   1.45446157,         1.25
    201,         -2.5,   2.45451593,         3.75
    202,         -2.5,   2.45451593,          2.5
    203,         -2.5,   2.45451593,         1.25
    204,        -3.25,           3.,         3.75
    205,        -3.25,           3.,          2.5
    206,        -3.25,           3.,         1.25
    207,           0.,   0.49994576,         3.75
    208,           0.,   0.49994576,          2.5
    209,           0.,   0.49994576,         1.25
    210,          2.5,   2.45451593,         3.75
    211,          2.5,   2.45451593,          2.5
    212,          2.5,   2.45451593,         1.25
    213,         3.25,           3.,         3.75
    214,         3.25,           3.,          2.5
    215,         3.25,           3.,         1.25
*Element, type=S4RT
  1,   1,  29, 129,  44
  2,  29,  30, 130, 129
  3,  30,  31, 131, 130
  4,  31,   2,  32, 131
  5,  44, 129, 132,  43
  6, 129, 130, 133, 132
  7, 130, 131, 134, 133
  8, 131,  32,  33, 134
  9,  43, 132, 135,  42
 10, 132, 133, 136, 135
 11, 133, 134, 137, 136
 12, 134,  33,  34, 137
 13,  42, 135, 138,  41
 14, 135, 136, 139, 138
 15, 136, 137, 140, 139
 16, 137,  34,  35, 140
 17,  41, 138, 141,  40
 18, 138, 139, 142, 141
 19, 139, 140, 143, 142
 20, 140,  35,  36, 143
 21,  40, 141,  39,   4
 22, 141, 142,  38,  39
 23, 142, 143,  37,  38
 24, 143,  36,   3,  37
 25,   5,  45, 144,  52
 26,  45,  46, 145, 144
 27,  46,  47, 146, 145
 28,  47,   6,  48, 146
 29,  52, 144,  51,   8
 30, 144, 145,  50,  51
 31, 145, 146,  49,  50
 32, 146,  48,   7,  49
 33,   9,  53, 147,  62
 34,  53,  54, 148, 147
 35,  54,  55, 149, 148
 36,  55,  10,  56, 149
 37,  62, 147, 150,  61
 38, 147, 148, 151, 150
 39, 148, 149, 152, 151
 40, 149,  56,  57, 152
 41,  61, 150,  60,  12
 42, 150, 151,  59,  60
 43, 151, 152,  58,  59
 44, 152,  57,  11,  58
 45,  13,  63, 153,  74
 46,  63,  64, 154, 153
 47,  64,  65, 155, 154
 48,  65,  14,  66, 155
 49,  74, 153, 156,  73
 50, 153, 154, 157, 156
 51, 154, 155, 158, 157
 52, 155,  66,  67, 158
 53,  73, 156, 159,  72
 54, 156, 157, 160, 159
 55, 157, 158, 161, 160
 56, 158,  67,  68, 161
 57,  72, 159,  71,  16
 58, 159, 160,  70,  71
 59, 160, 161,  69,  70
 60, 161,  68,  15,  69
 61,   2,  31, 162,  84
 62,  31,  30, 163, 162
 63,  30,  29, 164, 163
 64,  29,   1,  75, 164
 65,  84, 162, 165,  83
 66, 162, 163, 166, 165
 67, 163, 164, 167, 166
 68, 164,  75,  76, 167
 69,  83, 165, 168,  82
 70, 165, 166, 169, 168
 71, 166, 167, 170, 169
 72, 167,  76,  77, 170
 73,  82, 168, 171,  81
 74, 168, 169, 172, 171
 75, 169, 170, 173, 172
 76, 170,  77,  78, 173
 77,  81, 171, 174,  80
 78, 171, 172, 175, 174
 79, 172, 173, 176, 175
 80, 173,  78,  79, 176
 81,  80, 174,  66,  14
 82, 174, 175,  67,  66
 83, 175, 176,  68,  67
 84, 176,  79,  15,  68
 85,   3,  85, 177,  37
 86,  85,  86, 178, 177
 87,  86,  87, 179, 178
 88,  87,  17,  88, 179
 89,  37, 177, 180,  38
 90, 177, 178, 181, 180
 91, 178, 179, 182, 181
 92, 179,  88,  89, 182
 93,  38, 180, 183,  39
 94, 180, 181, 184, 183
 95, 181, 182, 185, 184
 96, 182,  89,  90, 185
 97,  39, 183,  93,   4
 98, 183, 184,  92,  93
 99, 184, 185,  91,  92
100, 185,  90,  18,  91
101,  17,  19,  94,  88
102,  88,  94,  95,  89
103,  89,  95,  96,  90
104,  90,  96,  20,  18
105,   6,  47, 186, 100
106,  47,  46, 187, 186
107,  46,  45, 188, 187
108,  45,   5,  97, 188
109, 100, 186, 189,  99
110, 186, 187, 190, 189
111, 187, 188, 191, 190
112, 188,  97,  98, 191
113,  99, 189,  94,  19
114, 189, 190,  95,  94
115, 190, 191,  96,  95
116, 191,  98,  20,  96
117,   7, 101, 192,  49
118, 101,  21, 102, 192
119,  49, 192, 193,  50
120, 192, 102, 103, 193
121,  50, 193, 194,  51
122, 193, 103, 104, 194
123,  51, 194, 105,   8
124, 194, 104,  22, 105
125,  21, 106, 195, 102
126, 106,  23, 107, 195
127, 102, 195, 196, 103
128, 195, 107, 108, 196
129, 103, 196, 197, 104
130, 196, 108, 109, 197
131, 104, 197, 110,  22
132, 197, 109,  24, 110
133,  10,  55, 198, 112
134,  55,  54, 199, 198
135,  54,  53, 200, 199
136,  53,   9, 111, 200
137, 112, 198, 107,  23
138, 198, 199, 108, 107
139, 199, 200, 109, 108
140, 200, 111,  24, 109
141,  11,  13,  74,  58
142,  58,  74,  73,  59
143,  59,  73,  72,  60
144,  60,  72,  16,  12
145,  10, 113, 201,  55
146, 113,  25, 114, 201
147,  55, 201, 202,  54
148, 201, 114, 115, 202
149,  54, 202, 203,  53
150, 202, 115, 116, 203
151,  53, 203, 117,   9
152, 203, 116,  26, 117
153,  25, 118, 204, 114
154, 118,  11,  58, 204
155, 114, 204, 205, 115
156, 204,  58,  59, 205
157, 115, 205, 206, 116
158, 205,  59,  60, 206
159, 116, 206, 119,  26
160, 206,  60,  12, 119
161,  21, 120, 207, 102
162, 120,   2,  31, 207
163, 102, 207, 208, 103
164, 207,  31,  30, 208
165, 103, 208, 209, 104
166, 208,  30,  29, 209
167, 104, 209, 121,  22
168, 209,  29,   1, 121
169,   6, 122, 210,  47
170, 122,  27, 123, 210
171,  47, 210, 211,  46
172, 210, 123, 124, 211
173,  46, 211, 212,  45
174, 211, 124, 125, 212
175,  45, 212, 126,   5
176, 212, 125,  28, 126
177,  27, 127, 213, 123
178, 127,  19,  94, 213
179, 123, 213, 214, 124
180, 213,  94,  95, 214
181, 124, 214, 215, 125
182, 214,  95,  96, 215
183, 125, 215, 128,  28
184, 215,  96,  20, 128
*Elset, elset=Set-1
 1,
*Elset, elset=Set-2
 2,
*Elset, elset=Set-3
 3,
*Elset, elset=Set-4
 4,
*Elset, elset=Set-5
 5,
*Elset, elset=Set-6
 6,
*Elset, elset=Set-7
 7,
*Elset, elset=Set-8
 8,
*Elset, elset=Set-9
 9,
*Elset, elset=Set-10
 10,
*Elset, elset=Set-11
 11,
*Elset, elset=Set-12
 12,
*Elset, elset=Set-13
 13,
*Elset, elset=Set-14
 14,
*Elset, elset=Set-15
 15,
*Elset, elset=Set-16
 16,
*Elset, elset=Set-17
 17,
*Elset, elset=Set-18
 18,
*Elset, elset=Set-19
 19,
*Elset, elset=Set-20
 20,
*Elset, elset=Set-21
 21,
*Elset, elset=Set-22
 22,
*Elset, elset=Set-23
 23,
*Elset, elset=Set-24
 24,
*Elset, elset=Set-25
 25,
*Elset, elset=Set-26
 26,
*Elset, elset=Set-27
 27,
*Elset, elset=Set-28
 28,
*Elset, elset=Set-29
 29,
*Elset, elset=Set-30
 30,
*Elset, elset=Set-31
 31,
*Elset, elset=Set-32
 32,
*Elset, elset=Set-33
 33,
*Elset, elset=Set-34
 34,
*Elset, elset=Set-35
 35,
*Elset, elset=Set-36
 36,
*Elset, elset=Set-37
 37,
*Elset, elset=Set-38
 38,
*Elset, elset=Set-39
 39,
*Elset, elset=Set-40
 40,
*Elset, elset=Set-41
 41,
*Elset, elset=Set-42
 42,
*Elset, elset=Set-43
 43,
*Elset, elset=Set-44
 44,
*Elset, elset=Set-45
 45,
*Elset, elset=Set-46
 46,
*Elset, elset=Set-47
 47,
*Elset, elset=Set-48
 48,
*Elset, elset=Set-49
 49,
*Elset, elset=Set-50
 50,
*Elset, elset=Set-51
 51,
*Elset, elset=Set-52
 52,
*Elset, elset=Set-53
 53,
*Elset, elset=Set-54
 54,
*Elset, elset=Set-55
 55,
*Elset, elset=Set-56
 56,
*Elset, elset=Set-57
 57,
*Elset, elset=Set-58
 58,
*Elset, elset=Set-59
 59,
*Elset, elset=Set-60
 60,
*Elset, elset=Set-61
 61,
*Elset, elset=Set-62
 62,
*Elset, elset=Set-63
 63,
*Elset, elset=Set-64
 64,
*Elset, elset=Set-65
 65,
*Elset, elset=Set-66
 66,
*Elset, elset=Set-67
 67,
*Elset, elset=Set-68
 68,
*Elset, elset=Set-69
 69,
*Elset, elset=Set-70
 70,
*Elset, elset=Set-71
 71,
*Elset, elset=Set-72
 72,
*Elset, elset=Set-73
 73,
*Elset, elset=Set-74
 74,
*Elset, elset=Set-75
 75,
*Elset, elset=Set-76
 76,
*Elset, elset=Set-77
 77,
*Elset, elset=Set-78
 78,
*Elset, elset=Set-79
 79,
*Elset, elset=Set-80
 80,
*Elset, elset=Set-81
 81,
*Elset, elset=Set-82
 82,
*Elset, elset=Set-83
 83,
*Elset, elset=Set-84
 84,
*Elset, elset=Set-85
 85,
*Elset, elset=Set-86
 86,
*Elset, elset=Set-87
 87,
*Elset, elset=Set-88
 88,
*Elset, elset=Set-89
 89,
*Elset, elset=Set-90
 90,
*Elset, elset=Set-91
 91,
*Elset, elset=Set-92
 92,
*Elset, elset=Set-93
 93,
*Elset, elset=Set-94
 94,
*Elset, elset=Set-95
 95,
*Elset, elset=Set-96
 96,
*Elset, elset=Set-97
 97,
*Elset, elset=Set-98
 98,
*Elset, elset=Set-99
 99,
*Elset, elset=Set-100
 100,
*Elset, elset=Set-101
 101,
*Elset, elset=Set-102
 102,
*Elset, elset=Set-103
 103,
*Elset, elset=Set-104
 104,
*Elset, elset=Set-105
 105,
*Elset, elset=Set-106
 106,
*Elset, elset=Set-107
 107,
*Elset, elset=Set-108
 108,
*Elset, elset=Set-109
 109,
*Elset, elset=Set-110
 110,
*Elset, elset=Set-111
 111,
*Elset, elset=Set-112
 112,
*Elset, elset=Set-113
 113,
*Elset, elset=Set-114
 114,
*Elset, elset=Set-115
 115,
*Elset, elset=Set-116
 116,
*Elset, elset=Set-117
 117,
*Elset, elset=Set-118
 118,
*Elset, elset=Set-119
 119,
*Elset, elset=Set-120
 120,
*Elset, elset=Set-121
 121,
*Elset, elset=Set-122
 122,
*Elset, elset=Set-123
 123,
*Elset, elset=Set-124
 124,
*Elset, elset=Set-125
 125,
*Elset, elset=Set-126
 126,
*Elset, elset=Set-127
 127,
*Elset, elset=Set-128
 128,
*Elset, elset=Set-129
 129,
*Elset, elset=Set-130
 130,
*Elset, elset=Set-131
 131,
*Elset, elset=Set-132
 132,
*Elset, elset=Set-133
 133,
*Elset, elset=Set-134
 134,
*Elset, elset=Set-135
 135,
*Elset, elset=Set-136
 136,
*Elset, elset=Set-137
 137,
*Elset, elset=Set-138
 138,
*Elset, elset=Set-139
 139,
*Elset, elset=Set-140
 140,
*Elset, elset=Set-141
 141,
*Elset, elset=Set-142
 142,
*Elset, elset=Set-143
 143,
*Elset, elset=Set-144
 144,
*Elset, elset=Set-145
 145,
*Elset, elset=Set-146
 146,
*Elset, elset=Set-147
 147,
*Elset, elset=Set-148
 148,
*Elset, elset=Set-149
 149,
*Elset, elset=Set-150
 150,
*Elset, elset=Set-151
 151,
*Elset, elset=Set-152
 152,
*Elset, elset=Set-153
 153,
*Elset, elset=Set-154
 154,
*Elset, elset=Set-155
 155,
*Elset, elset=Set-156
 156,
*Elset, elset=Set-157
 157,
*Elset, elset=Set-158
 158,
*Elset, elset=Set-159
 159,
*Elset, elset=Set-160
 160,
*Elset, elset=Set-161
 161,
*Elset, elset=Set-162
 162,
*Elset, elset=Set-163
 163,
*Elset, elset=Set-164
 164,
*Elset, elset=Set-165
 165,
*Elset, elset=Set-166
 166,
*Elset, elset=Set-167
 167,
*Elset, elset=Set-168
 168,
*Elset, elset=Set-169
 169,
*Elset, elset=Set-170
 170,
*Elset, elset=Set-171
 171,
*Elset, elset=Set-172
 172,
*Elset, elset=Set-173
 173,
*Elset, elset=Set-174
 174,
*Elset, elset=Set-175
 175,
*Elset, elset=Set-176
 176,
*Elset, elset=Set-177
 177,
*Elset, elset=Set-178
 178,
*Elset, elset=Set-179
 179,
*Elset, elset=Set-180
 180,
*Elset, elset=Set-181
 181,
*Elset, elset=Set-182
 182,
*Elset, elset=Set-183
 183,
*Elset, elset=Set-184
 184,
** Section: Section-1
*Shell Section, elset=Set-1, material=Material-1
0.07, 5
** Section: Section-2
*Shell Section, elset=Set-2, material=Material-2
0.07, 5
** Section: Section-3
*Shell Section, elset=Set-3, material=Material-3
0.07, 5
** Section: Section-4
*Shell Section, elset=Set-4, material=Material-4
0.07, 5
** Section: Section-5
*Shell Section, elset=Set-5, material=Material-5
0.07, 5
** Section: Section-6
*Shell Section, elset=Set-6, material=Material-6
0.07, 5
** Section: Section-7
*Shell Section, elset=Set-7, material=Material-7
0.07, 5
** Section: Section-8
*Shell Section, elset=Set-8, material=Material-8
0.07, 5
** Section: Section-9
*Shell Section, elset=Set-9, material=Material-9
0.07, 5
** Section: Section-10
*Shell Section, elset=Set-10, material=Material-10
0.07, 5
** Section: Section-11
*Shell Section, elset=Set-11, material=Material-11
0.07, 5
** Section: Section-12
*Shell Section, elset=Set-12, material=Material-12
0.07, 5
** Section: Section-13
*Shell Section, elset=Set-13, material=Material-13
0.07, 5
** Section: Section-14
*Shell Section, elset=Set-14, material=Material-14
0.07, 5
** Section: Section-15
*Shell Section, elset=Set-15, material=Material-15
0.07, 5
** Section: Section-16
*Shell Section, elset=Set-16, material=Material-16
0.07, 5
** Section: Section-17
*Shell Section, elset=Set-17, material=Material-17
0.07, 5
** Section: Section-18
*Shell Section, elset=Set-18, material=Material-18
0.07, 5
** Section: Section-19
*Shell Section, elset=Set-19, material=Material-19
0.07, 5
** Section: Section-20
*Shell Section, elset=Set-20, material=Material-20
0.07, 5
** Section: Section-21
*Shell Section, elset=Set-21, material=Material-21
0.07, 5
** Section: Section-22
*Shell Section, elset=Set-22, material=Material-22
0.07, 5
** Section: Section-23
*Shell Section, elset=Set-23, material=Material-23
0.07, 5
** Section: Section-24
*Shell Section, elset=Set-24, material=Material-24
0.07, 5
** Section: Section-25
*Shell Section, elset=Set-25, material=Material-25
0.07, 5
** Section: Section-26
*Shell Section, elset=Set-26, material=Material-26
0.07, 5
** Section: Section-27
*Shell Section, elset=Set-27, material=Material-27
0.07, 5
** Section: Section-28
*Shell Section, elset=Set-28, material=Material-28
0.07, 5
** Section: Section-29
*Shell Section, elset=Set-29, material=Material-29
0.07, 5
** Section: Section-30
*Shell Section, elset=Set-30, material=Material-30
0.07, 5
** Section: Section-31
*Shell Section, elset=Set-31, material=Material-31
0.07, 5
** Section: Section-32
*Shell Section, elset=Set-32, material=Material-32
0.07, 5
** Section: Section-33
*Shell Section, elset=Set-33, material=Material-33
0.07, 5
** Section: Section-34
*Shell Section, elset=Set-34, material=Material-34
0.07, 5
** Section: Section-35
*Shell Section, elset=Set-35, material=Material-35
0.07, 5
** Section: Section-36
*Shell Section, elset=Set-36, material=Material-36
0.07, 5
** Section: Section-37
*Shell Section, elset=Set-37, material=Material-37
0.07, 5
** Section: Section-38
*Shell Section, elset=Set-38, material=Material-38
0.07, 5
** Section: Section-39
*Shell Section, elset=Set-39, material=Material-39
0.07, 5
** Section: Section-40
*Shell Section, elset=Set-40, material=Material-40
0.07, 5
** Section: Section-41
*Shell Section, elset=Set-41, material=Material-41
0.07, 5
** Section: Section-42
*Shell Section, elset=Set-42, material=Material-42
0.07, 5
** Section: Section-43
*Shell Section, elset=Set-43, material=Material-43
0.07, 5
** Section: Section-44
*Shell Section, elset=Set-44, material=Material-44
0.07, 5
** Section: Section-45
*Shell Section, elset=Set-45, material=Material-45
0.07, 5
** Section: Section-46
*Shell Section, elset=Set-46, material=Material-46
0.07, 5
** Section: Section-47
*Shell Section, elset=Set-47, material=Material-47
0.07, 5
** Section: Section-48
*Shell Section, elset=Set-48, material=Material-48
0.07, 5
** Section: Section-49
*Shell Section, elset=Set-49, material=Material-49
0.07, 5
** Section: Section-50
*Shell Section, elset=Set-50, material=Material-50
0.07, 5
** Section: Section-51
*Shell Section, elset=Set-51, material=Material-51
0.07, 5
** Section: Section-52
*Shell Section, elset=Set-52, material=Material-52
0.07, 5
** Section: Section-53
*Shell Section, elset=Set-53, material=Material-53
0.07, 5
** Section: Section-54
*Shell Section, elset=Set-54, material=Material-54
0.07, 5
** Section: Section-55
*Shell Section, elset=Set-55, material=Material-55
0.07, 5
** Section: Section-56
*Shell Section, elset=Set-56, material=Material-56
0.07, 5
** Section: Section-57
*Shell Section, elset=Set-57, material=Material-57
0.07, 5
** Section: Section-58
*Shell Section, elset=Set-58, material=Material-58
0.07, 5
** Section: Section-59
*Shell Section, elset=Set-59, material=Material-59
0.07, 5
** Section: Section-60
*Shell Section, elset=Set-60, material=Material-60
0.07, 5
** Section: Section-61
*Shell Section, elset=Set-61, material=Material-61
0.07, 5
** Section: Section-62
*Shell Section, elset=Set-62, material=Material-62
0.07, 5
** Section: Section-63
*Shell Section, elset=Set-63, material=Material-63
0.07, 5
** Section: Section-64
*Shell Section, elset=Set-64, material=Material-64
0.07, 5
** Section: Section-65
*Shell Section, elset=Set-65, material=Material-65
0.07, 5
** Section: Section-66
*Shell Section, elset=Set-66, material=Material-66
0.07, 5
** Section: Section-67
*Shell Section, elset=Set-67, material=Material-67
0.07, 5
** Section: Section-68
*Shell Section, elset=Set-68, material=Material-68
0.07, 5
** Section: Section-69
*Shell Section, elset=Set-69, material=Material-69
0.07, 5
** Section: Section-70
*Shell Section, elset=Set-70, material=Material-70
0.07, 5
** Section: Section-71
*Shell Section, elset=Set-71, material=Material-71
0.07, 5
** Section: Section-72
*Shell Section, elset=Set-72, material=Material-72
0.07, 5
** Section: Section-73
*Shell Section, elset=Set-73, material=Material-73
0.07, 5
** Section: Section-74
*Shell Section, elset=Set-74, material=Material-74
0.07, 5
** Section: Section-75
*Shell Section, elset=Set-75, material=Material-75
0.07, 5
** Section: Section-76
*Shell Section, elset=Set-76, material=Material-76
0.07, 5
** Section: Section-77
*Shell Section, elset=Set-77, material=Material-77
0.07, 5
** Section: Section-78
*Shell Section, elset=Set-78, material=Material-78
0.07, 5
** Section: Section-79
*Shell Section, elset=Set-79, material=Material-79
0.07, 5
** Section: Section-80
*Shell Section, elset=Set-80, material=Material-80
0.07, 5
** Section: Section-81
*Shell Section, elset=Set-81, material=Material-81
0.07, 5
** Section: Section-82
*Shell Section, elset=Set-82, material=Material-82
0.07, 5
** Section: Section-83
*Shell Section, elset=Set-83, material=Material-83
0.07, 5
** Section: Section-84
*Shell Section, elset=Set-84, material=Material-84
0.07, 5
** Section: Section-85
*Shell Section, elset=Set-85, material=Material-85
0.07, 5
** Section: Section-86
*Shell Section, elset=Set-86, material=Material-86
0.07, 5
** Section: Section-87
*Shell Section, elset=Set-87, material=Material-87
0.07, 5
** Section: Section-88
*Shell Section, elset=Set-88, material=Material-88
0.07, 5
** Section: Section-89
*Shell Section, elset=Set-89, material=Material-89
0.07, 5
** Section: Section-90
*Shell Section, elset=Set-90, material=Material-90
0.07, 5
** Section: Section-91
*Shell Section, elset=Set-91, material=Material-91
0.07, 5
** Section: Section-92
*Shell Section, elset=Set-92, material=Material-92
0.07, 5
** Section: Section-93
*Shell Section, elset=Set-93, material=Material-93
0.07, 5
** Section: Section-94
*Shell Section, elset=Set-94, material=Material-94
0.07, 5
** Section: Section-95
*Shell Section, elset=Set-95, material=Material-95
0.07, 5
** Section: Section-96
*Shell Section, elset=Set-96, material=Material-96
0.07, 5
** Section: Section-97
*Shell Section, elset=Set-97, material=Material-97
0.07, 5
** Section: Section-98
*Shell Section, elset=Set-98, material=Material-98
0.07, 5
** Section: Section-99
*Shell Section, elset=Set-99, material=Material-99
0.07, 5
** Section: Section-100
*Shell Section, elset=Set-100, material=Material-100
0.07, 5
** Section: Section-101
*Shell Section, elset=Set-101, material=Material-101
0.07, 5
** Section: Section-102
*Shell Section, elset=Set-102, material=Material-102
0.07, 5
** Section: Section-103
*Shell Section, elset=Set-103, material=Material-103
0.07, 5
** Section: Section-104
*Shell Section, elset=Set-104, material=Material-104
0.07, 5
** Section: Section-105
*Shell Section, elset=Set-105, material=Material-105
0.07, 5
** Section: Section-106
*Shell Section, elset=Set-106, material=Material-106
0.07, 5
** Section: Section-107
*Shell Section, elset=Set-107, material=Material-107
0.07, 5
** Section: Section-108
*Shell Section, elset=Set-108, material=Material-108
0.07, 5
** Section: Section-109
*Shell Section, elset=Set-109, material=Material-109
0.07, 5
** Section: Section-110
*Shell Section, elset=Set-110, material=Material-110
0.07, 5
** Section: Section-111
*Shell Section, elset=Set-111, material=Material-111
0.07, 5
** Section: Section-112
*Shell Section, elset=Set-112, material=Material-112
0.07, 5
** Section: Section-113
*Shell Section, elset=Set-113, material=Material-113
0.07, 5
** Section: Section-114
*Shell Section, elset=Set-114, material=Material-114
0.07, 5
** Section: Section-115
*Shell Section, elset=Set-115, material=Material-115
0.07, 5
** Section: Section-116
*Shell Section, elset=Set-116, material=Material-116
0.07, 5
** Section: Section-117
*Shell Section, elset=Set-117, material=Material-117
0.07, 5
** Section: Section-118
*Shell Section, elset=Set-118, material=Material-118
0.07, 5
** Section: Section-119
*Shell Section, elset=Set-119, material=Material-119
0.07, 5
** Section: Section-120
*Shell Section, elset=Set-120, material=Material-120
0.07, 5
** Section: Section-121
*Shell Section, elset=Set-121, material=Material-121
0.07, 5
** Section: Section-122
*Shell Section, elset=Set-122, material=Material-122
0.07, 5
** Section: Section-123
*Shell Section, elset=Set-123, material=Material-123
0.07, 5
** Section: Section-124
*Shell Section, elset=Set-124, material=Material-124
0.07, 5
** Section: Section-125
*Shell Section, elset=Set-125, material=Material-125
0.07, 5
** Section: Section-126
*Shell Section, elset=Set-126, material=Material-126
0.07, 5
** Section: Section-127
*Shell Section, elset=Set-127, material=Material-127
0.07, 5
** Section: Section-128
*Shell Section, elset=Set-128, material=Material-128
0.07, 5
** Section: Section-129
*Shell Section, elset=Set-129, material=Material-129
0.07, 5
** Section: Section-130
*Shell Section, elset=Set-130, material=Material-130
0.07, 5
** Section: Section-131
*Shell Section, elset=Set-131, material=Material-131
0.07, 5
** Section: Section-132
*Shell Section, elset=Set-132, material=Material-132
0.07, 5
** Section: Section-133
*Shell Section, elset=Set-133, material=Material-133
0.07, 5
** Section: Section-134
*Shell Section, elset=Set-134, material=Material-134
0.07, 5
** Section: Section-135
*Shell Section, elset=Set-135, material=Material-135
0.07, 5
** Section: Section-136
*Shell Section, elset=Set-136, material=Material-136
0.07, 5
** Section: Section-137
*Shell Section, elset=Set-137, material=Material-137
0.07, 5
** Section: Section-138
*Shell Section, elset=Set-138, material=Material-138
0.07, 5
** Section: Section-139
*Shell Section, elset=Set-139, material=Material-139
0.07, 5
** Section: Section-140
*Shell Section, elset=Set-140, material=Material-140
0.07, 5
** Section: Section-141
*Shell Section, elset=Set-141, material=Material-141
0.07, 5
** Section: Section-142
*Shell Section, elset=Set-142, material=Material-142
0.07, 5
** Section: Section-143
*Shell Section, elset=Set-143, material=Material-143
0.07, 5
** Section: Section-144
*Shell Section, elset=Set-144, material=Material-144
0.07, 5
** Section: Section-145
*Shell Section, elset=Set-145, material=Material-145
0.07, 5
** Section: Section-146
*Shell Section, elset=Set-146, material=Material-146
0.07, 5
** Section: Section-147
*Shell Section, elset=Set-147, material=Material-147
0.07, 5
** Section: Section-148
*Shell Section, elset=Set-148, material=Material-148
0.07, 5
** Section: Section-149
*Shell Section, elset=Set-149, material=Material-149
0.07, 5
** Section: Section-150
*Shell Section, elset=Set-150, material=Material-150
0.07, 5
** Section: Section-151
*Shell Section, elset=Set-151, material=Material-151
0.07, 5
** Section: Section-152
*Shell Section, elset=Set-152, material=Material-152
0.07, 5
** Section: Section-153
*Shell Section, elset=Set-153, material=Material-153
0.07, 5
** Section: Section-154
*Shell Section, elset=Set-154, material=Material-154
0.07, 5
** Section: Section-155
*Shell Section, elset=Set-155, material=Material-155
0.07, 5
** Section: Section-156
*Shell Section, elset=Set-156, material=Material-156
0.07, 5
** Section: Section-157
*Shell Section, elset=Set-157, material=Material-157
0.07, 5
** Section: Section-158
*Shell Section, elset=Set-158, material=Material-158
0.07, 5
** Section: Section-159
*Shell Section, elset=Set-159, material=Material-159
0.07, 5
** Section: Section-160
*Shell Section, elset=Set-160, material=Material-160
0.07, 5
** Section: Section-161
*Shell Section, elset=Set-161, material=Material-161
0.07, 5
** Section: Section-162
*Shell Section, elset=Set-162, material=Material-162
0.07, 5
** Section: Section-163
*Shell Section, elset=Set-163, material=Material-163
0.07, 5
** Section: Section-164
*Shell Section, elset=Set-164, material=Material-164
0.07, 5
** Section: Section-165
*Shell Section, elset=Set-165, material=Material-165
0.07, 5
** Section: Section-166
*Shell Section, elset=Set-166, material=Material-166
0.07, 5
** Section: Section-167
*Shell Section, elset=Set-167, material=Material-167
0.07, 5
** Section: Section-168
*Shell Section, elset=Set-168, material=Material-168
0.07, 5
** Section: Section-169
*Shell Section, elset=Set-169, material=Material-169
0.07, 5
** Section: Section-170
*Shell Section, elset=Set-170, material=Material-170
0.07, 5
** Section: Section-171
*Shell Section, elset=Set-171, material=Material-171
0.07, 5
** Section: Section-172
*Shell Section, elset=Set-172, material=Material-172
0.07, 5
** Section: Section-173
*Shell Section, elset=Set-173, material=Material-173
0.07, 5
** Section: Section-174
*Shell Section, elset=Set-174, material=Material-174
0.07, 5
** Section: Section-175
*Shell Section, elset=Set-175, material=Material-175
0.07, 5
** Section: Section-176
*Shell Section, elset=Set-176, material=Material-176
0.07, 5
** Section: Section-177
*Shell Section, elset=Set-177, material=Material-177
0.07, 5
** Section: Section-178
*Shell Section, elset=Set-178, material=Material-178
0.07, 5
** Section: Section-179
*Shell Section, elset=Set-179, material=Material-179
0.07, 5
** Section: Section-180
*Shell Section, elset=Set-180, material=Material-180
0.07, 5
** Section: Section-181
*Shell Section, elset=Set-181, material=Material-181
0.07, 5
** Section: Section-182
*Shell Section, elset=Set-182, material=Material-182
0.07, 5
** Section: Section-183
*Shell Section, elset=Set-183, material=Material-183
0.07, 5
** Section: Section-184
*Shell Section, elset=Set-184, material=Material-184
0.07, 5
*End Part
**  
**
** ASSEMBLY
**
*Assembly, name=Assembly
**  
*Instance, name=PART-1-1, part=PART-1-1
*End Instance
**  
*Elset, elset=Set-1, instance=PART-1-1
 1,
*Elset, elset=Set-2, instance=PART-1-1
 2,
*Elset, elset=Set-3, instance=PART-1-1
 3,
*Elset, elset=Set-4, instance=PART-1-1
 4,
*Elset, elset=Set-5, instance=PART-1-1
 5,
*Elset, elset=Set-6, instance=PART-1-1
 6,
*Elset, elset=Set-7, instance=PART-1-1
 7,
*Elset, elset=Set-8, instance=PART-1-1
 8,
*Elset, elset=Set-9, instance=PART-1-1
 9,
*Elset, elset=Set-10, instance=PART-1-1
 10,
*Elset, elset=Set-11, instance=PART-1-1
 11,
*Elset, elset=Set-12, instance=PART-1-1
 12,
*Elset, elset=Set-13, instance=PART-1-1
 13,
*Elset, elset=Set-14, instance=PART-1-1
 14,
*Elset, elset=Set-15, instance=PART-1-1
 15,
*Elset, elset=Set-16, instance=PART-1-1
 16,
*Elset, elset=Set-17, instance=PART-1-1
 17,
*Elset, elset=Set-18, instance=PART-1-1
 18,
*Elset, elset=Set-19, instance=PART-1-1
 19,
*Elset, elset=Set-20, instance=PART-1-1
 20,
*Elset, elset=Set-21, instance=PART-1-1
 21,
*Elset, elset=Set-22, instance=PART-1-1
 22,
*Elset, elset=Set-23, instance=PART-1-1
 23,
*Elset, elset=Set-24, instance=PART-1-1
 24,
*Elset, elset=Set-25, instance=PART-1-1
 25,
*Elset, elset=Set-26, instance=PART-1-1
 26,
*Elset, elset=Set-27, instance=PART-1-1
 27,
*Elset, elset=Set-28, instance=PART-1-1
 28,
*Elset, elset=Set-29, instance=PART-1-1
 29,
*Elset, elset=Set-30, instance=PART-1-1
 30,
*Elset, elset=Set-31, instance=PART-1-1
 31,
*Elset, elset=Set-32, instance=PART-1-1
 32,
*Elset, elset=Set-33, instance=PART-1-1
 33,
*Elset, elset=Set-34, instance=PART-1-1
 34,
*Elset, elset=Set-35, instance=PART-1-1
 35,
*Elset, elset=Set-36, instance=PART-1-1
 36,
*Elset, elset=Set-37, instance=PART-1-1
 37,
*Elset, elset=Set-38, instance=PART-1-1
 38,
*Elset, elset=Set-39, instance=PART-1-1
 39,
*Elset, elset=Set-40, instance=PART-1-1
 40,
*Elset, elset=Set-41, instance=PART-1-1
 41,
*Elset, elset=Set-42, instance=PART-1-1
 42,
*Elset, elset=Set-43, instance=PART-1-1
 43,
*Elset, elset=Set-44, instance=PART-1-1
 44,
*Elset, elset=Set-45, instance=PART-1-1
 45,
*Elset, elset=Set-46, instance=PART-1-1
 46,
*Elset, elset=Set-47, instance=PART-1-1
 47,
*Elset, elset=Set-48, instance=PART-1-1
 48,
*Elset, elset=Set-49, instance=PART-1-1
 49,
*Elset, elset=Set-50, instance=PART-1-1
 50,
*Elset, elset=Set-51, instance=PART-1-1
 51,
*Elset, elset=Set-52, instance=PART-1-1
 52,
*Elset, elset=Set-53, instance=PART-1-1
 53,
*Elset, elset=Set-54, instance=PART-1-1
 54,
*Elset, elset=Set-55, instance=PART-1-1
 55,
*Elset, elset=Set-56, instance=PART-1-1
 56,
*Elset, elset=Set-57, instance=PART-1-1
 57,
*Elset, elset=Set-58, instance=PART-1-1
 58,
*Elset, elset=Set-59, instance=PART-1-1
 59,
*Elset, elset=Set-60, instance=PART-1-1
 60,
*Elset, elset=Set-61, instance=PART-1-1
 61,
*Elset, elset=Set-62, instance=PART-1-1
 62,
*Elset, elset=Set-63, instance=PART-1-1
 63,
*Elset, elset=Set-64, instance=PART-1-1
 64,
*Elset, elset=Set-65, instance=PART-1-1
 65,
*Elset, elset=Set-66, instance=PART-1-1
 66,
*Elset, elset=Set-67, instance=PART-1-1
 67,
*Elset, elset=Set-68, instance=PART-1-1
 68,
*Elset, elset=Set-69, instance=PART-1-1
 69,
*Elset, elset=Set-70, instance=PART-1-1
 70,
*Elset, elset=Set-71, instance=PART-1-1
 71,
*Elset, elset=Set-72, instance=PART-1-1
 72,
*Elset, elset=Set-73, instance=PART-1-1
 73,
*Elset, elset=Set-74, instance=PART-1-1
 74,
*Elset, elset=Set-75, instance=PART-1-1
 75,
*Elset, elset=Set-76, instance=PART-1-1
 76,
*Elset, elset=Set-77, instance=PART-1-1
 77,
*Elset, elset=Set-78, instance=PART-1-1
 78,
*Elset, elset=Set-79, instance=PART-1-1
 79,
*Elset, elset=Set-80, instance=PART-1-1
 80,
*Elset, elset=Set-81, instance=PART-1-1
 81,
*Elset, elset=Set-82, instance=PART-1-1
 82,
*Elset, elset=Set-83, instance=PART-1-1
 83,
*Elset, elset=Set-84, instance=PART-1-1
 84,
*Elset, elset=Set-85, instance=PART-1-1
 85,
*Elset, elset=Set-86, instance=PART-1-1
 86,
*Elset, elset=Set-87, instance=PART-1-1
 87,
*Elset, elset=Set-88, instance=PART-1-1
 88,
*Elset, elset=Set-89, instance=PART-1-1
 89,
*Elset, elset=Set-90, instance=PART-1-1
 90,
*Elset, elset=Set-91, instance=PART-1-1
 91,
*Elset, elset=Set-92, instance=PART-1-1
 92,
*Elset, elset=Set-93, instance=PART-1-1
 93,
*Elset, elset=Set-94, instance=PART-1-1
 94,
*Elset, elset=Set-95, instance=PART-1-1
 95,
*Elset, elset=Set-96, instance=PART-1-1
 96,
*Elset, elset=Set-97, instance=PART-1-1
 97,
*Elset, elset=Set-98, instance=PART-1-1
 98,
*Elset, elset=Set-99, instance=PART-1-1
 99,
*Elset, elset=Set-100, instance=PART-1-1
 100,
*Elset, elset=Set-101, instance=PART-1-1
 101,
*Elset, elset=Set-102, instance=PART-1-1
 102,
*Elset, elset=Set-103, instance=PART-1-1
 103,
*Elset, elset=Set-104, instance=PART-1-1
 104,
*Elset, elset=Set-105, instance=PART-1-1
 105,
*Elset, elset=Set-106, instance=PART-1-1
 106,
*Elset, elset=Set-107, instance=PART-1-1
 107,
*Elset, elset=Set-108, instance=PART-1-1
 108,
*Elset, elset=Set-109, instance=PART-1-1
 109,
*Elset, elset=Set-110, instance=PART-1-1
 110,
*Elset, elset=Set-111, instance=PART-1-1
 111,
*Elset, elset=Set-112, instance=PART-1-1
 112,
*Elset, elset=Set-113, instance=PART-1-1
 113,
*Elset, elset=Set-114, instance=PART-1-1
 114,
*Elset, elset=Set-115, instance=PART-1-1
 115,
*Elset, elset=Set-116, instance=PART-1-1
 116,
*Elset, elset=Set-117, instance=PART-1-1
 117,
*Elset, elset=Set-118, instance=PART-1-1
 118,
*Elset, elset=Set-119, instance=PART-1-1
 119,
*Elset, elset=Set-120, instance=PART-1-1
 120,
*Elset, elset=Set-121, instance=PART-1-1
 121,
*Elset, elset=Set-122, instance=PART-1-1
 122,
*Elset, elset=Set-123, instance=PART-1-1
 123,
*Elset, elset=Set-124, instance=PART-1-1
 124,
*Elset, elset=Set-125, instance=PART-1-1
 125,
*Elset, elset=Set-126, instance=PART-1-1
 126,
*Elset, elset=Set-127, instance=PART-1-1
 127,
*Elset, elset=Set-128, instance=PART-1-1
 128,
*Elset, elset=Set-129, instance=PART-1-1
 129,
*Elset, elset=Set-130, instance=PART-1-1
 130,
*Elset, elset=Set-131, instance=PART-1-1
 131,
*Elset, elset=Set-132, instance=PART-1-1
 132,
*Elset, elset=Set-133, instance=PART-1-1
 133,
*Elset, elset=Set-134, instance=PART-1-1
 134,
*Elset, elset=Set-135, instance=PART-1-1
 135,
*Elset, elset=Set-136, instance=PART-1-1
 136,
*Elset, elset=Set-137, instance=PART-1-1
 137,
*Elset, elset=Set-138, instance=PART-1-1
 138,
*Elset, elset=Set-139, instance=PART-1-1
 139,
*Elset, elset=Set-140, instance=PART-1-1
 140,
*Elset, elset=Set-141, instance=PART-1-1
 141,
*Elset, elset=Set-142, instance=PART-1-1
 142,
*Elset, elset=Set-143, instance=PART-1-1
 143,
*Elset, elset=Set-144, instance=PART-1-1
 144,
*Elset, elset=Set-145, instance=PART-1-1
 145,
*Elset, elset=Set-146, instance=PART-1-1
 146,
*Elset, elset=Set-147, instance=PART-1-1
 147,
*Elset, elset=Set-148, instance=PART-1-1
 148,
*Elset, elset=Set-149, instance=PART-1-1
 149,
*Elset, elset=Set-150, instance=PART-1-1
 150,
*Elset, elset=Set-151, instance=PART-1-1
 151,
*Elset, elset=Set-152, instance=PART-1-1
 152,
*Elset, elset=Set-153, instance=PART-1-1
 153,
*Elset, elset=Set-154, instance=PART-1-1
 154,
*Elset, elset=Set-155, instance=PART-1-1
 155,
*Elset, elset=Set-156, instance=PART-1-1
 156,
*Elset, elset=Set-157, instance=PART-1-1
 157,
*Elset, elset=Set-158, instance=PART-1-1
 158,
*Elset, elset=Set-159, instance=PART-1-1
 159,
*Elset, elset=Set-160, instance=PART-1-1
 160,
*Elset, elset=Set-161, instance=PART-1-1
 161,
*Elset, elset=Set-162, instance=PART-1-1
 162,
*Elset, elset=Set-163, instance=PART-1-1
 163,
*Elset, elset=Set-164, instance=PART-1-1
 164,
*Elset, elset=Set-165, instance=PART-1-1
 165,
*Elset, elset=Set-166, instance=PART-1-1
 166,
*Elset, elset=Set-167, instance=PART-1-1
 167,
*Elset, elset=Set-168, instance=PART-1-1
 168,
*Elset, elset=Set-169, instance=PART-1-1
 169,
*Elset, elset=Set-170, instance=PART-1-1
 170,
*Elset, elset=Set-171, instance=PART-1-1
 171,
*Elset, elset=Set-172, instance=PART-1-1
 172,
*Elset, elset=Set-173, instance=PART-1-1
 173,
*Elset, elset=Set-174, instance=PART-1-1
 174,
*Elset, elset=Set-175, instance=PART-1-1
 175,
*Elset, elset=Set-176, instance=PART-1-1
 176,
*Elset, elset=Set-177, instance=PART-1-1
 177,
*Elset, elset=Set-178, instance=PART-1-1
 178,
*Elset, elset=Set-179, instance=PART-1-1
 179,
*Elset, elset=Set-180, instance=PART-1-1
 180,
*Elset, elset=Set-181, instance=PART-1-1
 181,
*Elset, elset=Set-182, instance=PART-1-1
 182,
*Elset, elset=Set-183, instance=PART-1-1
 183,
*Elset, elset=Set-184, instance=PART-1-1
 184,
*Nset, nset=load, instance=PART-1-1
 201, 203, 210, 212
*Nset, nset=sensor, instance=PART-1-1
 201, 203
*Nset, nset=_PickedSet205, internal, instance=PART-1-1
   1,   2,   3,   4,  13,  14,  15,  16,  17,  18,  29,  30,  31,  32,  33,  34
  35,  36,  37,  38,  39,  40,  41,  42,  43,  44,  63,  64,  65,  66,  67,  68
  69,  70,  71,  72,  73,  74,  75,  76,  77,  78,  79,  80,  81,  82,  83,  84
  85,  86,  87,  88,  89,  90,  91,  92,  93, 129, 130, 131, 132, 133, 134, 135
 136, 137, 138, 139, 140, 141, 142, 143, 153, 154, 155, 156, 157, 158, 159, 160
 161, 162, 163, 164, 165, 166, 167, 168, 169, 170, 171, 172, 173, 174, 175, 176
 177, 178, 179, 180, 181, 182, 183, 184, 185
*Nset, nset=_PickedSet210, internal, instance=PART-1-1
 201,
*Nset, nset=_PickedSet211, internal, instance=PART-1-1
 203,
*Nset, nset=_PickedSet212, internal, instance=PART-1-1
 210,
*Nset, nset=_PickedSet213, internal, instance=PART-1-1
 212,
*Elset, elset=__PICKEDSURF19_SNEG, internal, instance=PART-1-1, generate
 117,  132,    1
*Elset, elset=__PICKEDSURF20_SNEG, internal, instance=PART-1-1, generate
 145,  152,    1
*Elset, elset=__PICKEDSURF20_SPOS, internal, instance=PART-1-1, generate
 169,  176,    1
*End Assembly
*Amplitude, name=Amp-node1
             0.,     0.557162338,            0.01,     0.597975119,            0.02,     0.633396342,            0.03,     0.663106636
           0.04,     0.686838124,            0.05,     0.704376832,            0.06,     0.715564627,            0.07,     0.720300635
           0.08,     0.718542154,            0.09,      0.71030504,             0.1,      0.69566356,            0.11,     0.674749729
           0.12,     0.647752113,            0.13,     0.614914131,            0.14,     0.576531864,            0.15,     0.532951378
           0.16,     0.484565612,            0.17,     0.431810829,            0.18,     0.375162684,            0.19,     0.315131938
            0.2,      0.25225985,            0.21,     0.187113297,            0.22,     0.120279663,            0.23,     0.052361545
           0.24,    -0.016028684,            0.25,    -0.084274393,            0.26,    -0.151760253,            0.27,    -0.217877789
           0.28,     -0.28203086,            0.29,     -0.34364104,             0.3,    -0.402152829,            0.31,    -0.457038665
           0.32,    -0.507803676,            0.33,    -0.553990147,            0.34,    -0.595181644,            0.35,     -0.63100677
           0.36,    -0.661142514,            0.37,    -0.685317159,            0.38,     -0.70331274,            0.39,       -0.714967
            0.4,    -0.720174862,            0.41,     -0.71888937,            0.42,    -0.711122113,            0.43,    -0.696943125
           0.44,    -0.676480247,            0.45,    -0.649917982,            0.46,    -0.617495823,            0.47,      -0.5795061
           0.48,    -0.536291343,            0.49,     -0.48824119,             0.5,    -0.435788881,            0.51,    -0.379407342
           0.52,    -0.319604931,            0.53,    -0.256920848,            0.54,    -0.191920274,            0.55,    -0.125189278
           0.56,     -0.05732953,            0.57,     0.011047121,            0.58,     0.079324167,            0.59,     0.146885998
            0.6,     0.213123452,            0.61,     0.277439309,            0.62,     0.339253673,            0.63,     0.398009205
           0.64,     0.453176144,            0.65,     0.504257083,            0.66,     0.550791461,            0.67,     0.592359705
           0.68,     0.628587022,            0.69,     0.659146772,             0.7,      0.68376342,            0.71,     0.702215011
           0.72,     0.714335181,            0.73,     0.720014648,            0.74,     0.719202205,            0.75,     0.711905178
           0.76,     0.698189358,            0.77,     0.678178413,            0.78,     0.652052769,            0.79,     0.620047983
            0.8,     0.582452622,            0.81,     0.539605659,            0.82,     0.491893419,            0.83,     0.439746091
           0.84,     0.383633855,            0.85,     0.324062639,            0.86,     0.261569558,            0.87,     0.196718072
           0.88,     0.130092905,            0.89,     0.062294774,             0.9,    -0.006065029,            0.91,    -0.074370147
           0.92,    -0.142004717,            0.93,    -0.208358923,            0.94,    -0.272834489,            0.95,    -0.334850082
           0.96,    -0.393846546,            0.97,    -0.449291949,            0.98,    -0.500686375,            0.99,    -0.547566433
             1.,    -0.589509436
*Amplitude, name=Amp-node2
             0.,     0.509681494,            0.01,     0.600818691,            0.02,     0.684247302,            0.03,     0.758896925
           0.04,     0.823809797,            0.05,     0.878153076,            0.06,     0.921229529,            0.07,     0.952486481
           0.08,     0.971522901,            0.09,     0.978094548,             0.1,     0.972117107,            0.11,      0.95366727
           0.12,     0.922981751,            0.13,     0.880454249,            0.14,     0.826630398,            0.15,     0.762200765
           0.16,     0.687991991,            0.17,     0.604956186,            0.18,     0.514158709,            0.19,     0.416764505
            0.2,     0.314023156,            0.21,     0.207252846,            0.22,     0.097823454,            0.23,    -0.012861027
           0.24,    -0.123380499,            0.25,    -0.232316983,            0.26,    -0.338272807,            0.27,    -0.439888545
           0.28,    -0.535860452,            0.29,    -0.624957196,             0.3,    -0.706035653,            0.31,    -0.778055575
           0.32,    -0.840092938,            0.33,    -0.891351792,            0.34,     -0.93117448,            0.35,    -0.959050072
           0.36,    -0.974620919,            0.37,    -0.977687246,            0.38,     -0.96820971,            0.39,    -0.946309911
            0.4,    -0.912268826,            0.41,    -0.866523206,            0.42,    -0.809659974,            0.43,    -0.742408693
           0.44,    -0.665632207,            0.45,    -0.580315568,            0.46,      -0.4875534,            0.47,    -0.388535855
           0.48,    -0.284533341,            0.49,    -0.176880226,             0.5,    -0.066957713,            0.51,     0.043823877
           0.52,       0.1540432,            0.53,     0.262286128,            0.54,     0.367163889,            0.55,     0.467330887
           0.56,     0.561501965,            0.57,     0.648468895,            0.58,     0.727115881,            0.59,     0.796433869
            0.6,     0.855533502,            0.61,     0.903656522,            0.62,     0.940185504,            0.63,     0.964651777
           0.64,     0.976741435,            0.65,     0.976299366,            0.66,     0.963331242,            0.67,     0.938003445
           0.68,     0.900640935,            0.69,     0.851723078,             0.7,     0.791877497,            0.71,     0.721872019
           0.72,     0.642604823,            0.73,     0.555092919,            0.74,     0.460459096,            0.75,      0.35991752
           0.76,     0.254758152,            0.77,     0.146330203,            0.78,     0.036024816,            0.79,    -0.074742773
            0.8,    -0.184551403,            0.81,    -0.291992213,            0.82,    -0.395686722,            0.83,    -0.494304517
           0.84,    -0.586580316,            0.85,    -0.671330209,            0.86,    -0.747466843,            0.87,    -0.814013375
           0.88,    -0.870116003,            0.89,    -0.915054924,             0.9,    -0.948253563,            0.91,    -0.969285979
           0.92,    -0.977882322,            0.93,    -0.973932301,            0.94,    -0.957486594,            0.95,    -0.928756203
           0.96,    -0.888109741,            0.97,     -0.83606871,            0.98,    -0.773300802,            0.99,    -0.700611338
             1.,    -0.618932934
*Amplitude, name=Amp-node3
             0.,      0.20271009,            0.01,     0.252889115,            0.02,     0.300654732,            0.03,     0.345551095
           0.04,     0.387149743,            0.05,     0.425053685,            0.06,     0.458901192,            0.07,     0.488369244
           0.08,     0.513176618,            0.09,     0.533086567,             0.1,     0.547909085,            0.11,     0.557502715
           0.12,     0.561775902,            0.13,     0.560687865,            0.14,     0.554248987,            0.15,     0.542520717
           0.16,     0.525614983,            0.17,     0.503693121,            0.18,     0.476964339,            0.19,     0.445683719
            0.2,     0.410149785,            0.21,     0.370701647,            0.22,     0.327715773,            0.23,     0.281602394
           0.24,     0.232801584,            0.25,     0.181779068,            0.26,      0.12902177,            0.27,     0.075033172
           0.28,     0.020328507,            0.29,    -0.034570161,             0.3,    -0.089138913,            0.31,    -0.142856982
           0.32,    -0.195211716,            0.33,    -0.245703477,            0.34,    -0.293850404,            0.35,    -0.339193013
           0.36,    -0.381298585,            0.37,    -0.419765291,            0.38,     -0.45422603,            0.39,    -0.484351931
            0.4,    -0.509855492,            0.41,    -0.530493324,            0.42,    -0.546068473,            0.43,    -0.556432299
           0.44,    -0.561485898,            0.45,    -0.561181039,            0.46,    -0.555520634,            0.47,    -0.544558702
           0.48,    -0.528399855,            0.49,    -0.507198303,             0.5,    -0.481156381,            0.51,    -0.450522615
           0.52,    -0.415589354,            0.53,    -0.376689979,            0.54,    -0.334195719,            0.55,    -0.288512113
           0.56,    -0.240075134,            0.57,    -0.189347035,            0.58,    -0.136811931,            0.59,    -0.082971183
            0.6,    -0.028338611,            0.61,     0.026564405,            0.62,     0.081213909,            0.63,     0.135088359
           0.64,     0.187673614,            0.65,     0.238467834,            0.66,     0.286986272,            0.67,       0.3327659
           0.68,     0.375369826,            0.69,     0.414391467,             0.7,     0.449458425,            0.71,     0.480236045
           0.72,     0.506430603,            0.73,     0.527792118,            0.74,     0.544116727,            0.75,      0.55524864
           0.76,     0.561081622,            0.77,     0.561560005,            0.78,     0.556679224,            0.79,     0.546485859
            0.8,     0.531077189,            0.81,     0.510600263,            0.82,       0.4852505,            0.83,     0.455269822
           0.84,     0.420944344,            0.85,     0.382601648,            0.86,      0.34060765,            0.87,     0.295363115
           0.88,     0.247299825,            0.89,     0.196876468,             0.9,     0.144574249,            0.91,     0.090892307
           0.92,     0.036342949,            0.93,    -0.018553244,            0.94,    -0.073272375,            0.95,    -0.127292244
           0.96,    -0.180097317,            0.97,    -0.231183659,            0.98,    -0.280063735,            0.99,    -0.326271064
             1.,    -0.369364674
*Amplitude, name=Amp-node4
             0.,     0.152107758,            0.01,     0.228109142,            0.02,     0.301499031,            0.03,     0.371437226
           0.04,     0.437123043,            0.05,     0.497804483,            0.06,     0.552786837,            0.07,     0.601440643
           0.08,     0.643208891,            0.09,       0.6776134,             0.1,      0.70426029,            0.11,     0.722844498
           0.12,     0.733153262,            0.13,     0.735068564,            0.14,     0.728568476,            0.15,     0.713727414
           0.16,     0.690715286,            0.17,     0.659795543,            0.18,      0.62132217,            0.19,     0.575735626
            0.2,     0.523557806,            0.21,     0.465386065,            0.22,     0.401886378,            0.23,     0.333785719
           0.24,     0.261863733,            0.25,     0.186943816,            0.26,     0.109883683,            0.27,     0.031565553
           0.28,    -0.047113953,            0.29,    -0.125254078,             0.3,    -0.201960238,            0.31,    -0.276354269
           0.32,    -0.347584474,            0.33,    -0.414835378,            0.34,    -0.477337064,            0.35,    -0.534373984
           0.36,    -0.585293154,            0.37,     -0.62951163,            0.38,    -0.666523179,            0.39,    -0.695904075
            0.4,    -0.717317954,            0.41,    -0.730519661,            0.42,    -0.735358055,            0.43,    -0.731777745
           0.44,    -0.719819721,            0.45,    -0.699620882,            0.46,    -0.671412474,            0.47,     -0.63551744
           0.48,    -0.592346721,            0.49,    -0.542394555,             0.5,    -0.486232816,            0.51,    -0.424504469
           0.52,    -0.357916208,            0.53,    -0.287230363,            0.54,    -0.213256179,            0.55,    -0.136840543
           0.56,    -0.058858297,            0.57,     0.019797785,            0.58,     0.098227214,            0.59,     0.175532094
            0.6,     0.250827405,            0.61,     0.323251133,            0.62,     0.391974139,            0.63,     0.456209652
           0.64,     0.515222275,            0.65,     0.568336406,            0.66,     0.614943971,            0.67,     0.654511385
           0.68,     0.686585664,            0.69,     0.710799607,             0.7,     0.726876002,            0.71,     0.734630799
           0.72,     0.733975218,            0.73,     0.724916764,            0.74,     0.707559143,            0.75,     0.682101073
           0.76,     0.648834007,            0.77,     0.608138804,            0.78,     0.560481358,            0.79,     0.506407274
            0.8,     0.446535617,            0.81,     0.381551822,            0.82,     0.312199853,            0.83,     0.239273682
           0.84,       0.1636082,            0.85,      0.08606966,            0.86,     0.007545756,            0.87,    -0.071064536
           0.88,    -0.148861249,            0.89,    -0.224953732,             0.9,    -0.298470846,            0.91,    -0.368570934
           0.92,    -0.434451459,            0.93,    -0.495358191,            0.94,    -0.550593844,            0.95,    -0.599526056
           0.96,    -0.641594628,            0.97,    -0.676317942,            0.98,    -0.703298468,            0.99,    -0.722227324
             1.,    -0.732887801
** 
** MATERIALS
** 
*Material, name=Material-1
*Conductivity
150.,
*Density
7850.,
*Elastic
 2.1e+11, 0.3
*Expansion
 1e-05,
*Specific Heat
150.,
*Material, name=Material-2
*Conductivity
150.,
*Density
7850.,
*Elastic
 2.1e+11, 0.3
*Expansion
 1e-05,
*Specific Heat
150.,
*Material, name=Material-3
*Conductivity
150.,
*Density
7850.,
*Elastic
 2.1e+11, 0.3
*Expansion
 1e-05,
*Specific Heat
150.,
*Material, name=Material-4
*Conductivity
150.,
*Density
7850.,
*Elastic
 2.1e+11, 0.3
*Expansion
 1e-05,
*Specific Heat
150.,
*Material, name=Material-5
*Conductivity
150.,
*Density
7850.,
*Elastic
 2.1e+11, 0.3
*Expansion
 1e-05,
*Specific Heat
150.,
*Material, name=Material-6
*Conductivity
150.,
*Density
7850.,
*Elastic
 2.1e+11, 0.3
*Expansion
 1e-05,
*Specific Heat
150.,
*Material, name=Material-7
*Conductivity
150.,
*Density
7850.,
*Elastic
 2.1e+11, 0.3
*Expansion
 1e-05,
*Specific Heat
150.,
*Material, name=Material-8
*Conductivity
150.,
*Density
7850.,
*Elastic
 2.1e+11, 0.3
*Expansion
 1e-05,
*Specific Heat
150.,
*Material, name=Material-9
*Conductivity
150.,
*Density
7850.,
*Elastic
 2.1e+11, 0.3
*Expansion
 1e-05,
*Specific Heat
150.,
*Material, name=Material-10
*Conductivity
150.,
*Density
7850.,
*Elastic
 2.1e+11, 0.3
*Expansion
 1e-05,
*Specific Heat
150.,
*Material, name=Material-11
*Conductivity
150.,
*Density
7850.,
*Elastic
 2.1e+11, 0.3
*Expansion
 1e-05,
*Specific Heat
150.,
*Material, name=Material-12
*Conductivity
150.,
*Density
7850.,
*Elastic
 2.1e+11, 0.3
*Expansion
 1e-05,
*Specific Heat
150.,
*Material, name=Material-13
*Conductivity
150.,
*Density
7850.,
*Elastic
 2.1e+11, 0.3
*Expansion
 1e-05,
*Specific Heat
150.,
*Material, name=Material-14
*Conductivity
150.,
*Density
7850.,
*Elastic
 2.1e+11, 0.3
*Expansion
 1e-05,
*Specific Heat
150.,
*Material, name=Material-15
*Conductivity
150.,
*Density
7850.,
*Elastic
 2.1e+11, 0.3
*Expansion
 1e-05,
*Specific Heat
150.,
*Material, name=Material-16
*Conductivity
150.,
*Density
7850.,
*Elastic
 2.1e+11, 0.3
*Expansion
 1e-05,
*Specific Heat
150.,
*Material, name=Material-17
*Conductivity
150.,
*Density
7850.,
*Elastic
 2.1e+11, 0.3
*Expansion
 1e-05,
*Specific Heat
150.,
*Material, name=Material-18
*Conductivity
150.,
*Density
7850.,
*Elastic
 2.1e+11, 0.3
*Expansion
 1e-05,
*Specific Heat
150.,
*Material, name=Material-19
*Conductivity
150.,
*Density
7850.,
*Elastic
 2.1e+11, 0.3
*Expansion
 1e-05,
*Specific Heat
150.,
*Material, name=Material-20
*Conductivity
150.,
*Density
7850.,
*Elastic
 2.1e+11, 0.3
*Expansion
 1e-05,
*Specific Heat
150.,
*Material, name=Material-21
*Conductivity
150.,
*Density
7850.,
*Elastic
 2.1e+11, 0.3
*Expansion
 1e-05,
*Specific Heat
150.,
*Material, name=Material-22
*Conductivity
150.,
*Density
7850.,
*Elastic
 2.1e+11, 0.3
*Expansion
 1e-05,
*Specific Heat
150.,
*Material, name=Material-23
*Conductivity
150.,
*Density
7850.,
*Elastic
 2.1e+11, 0.3
*Expansion
 1e-05,
*Specific Heat
150.,
*Material, name=Material-24
*Conductivity
150.,
*Density
7850.,
*Elastic
 2.1e+11, 0.3
*Expansion
 1e-05,
*Specific Heat
150.,
*Material, name=Material-25
*Conductivity
150.,
*Density
7850.,
*Elastic
 2.1e+11, 0.3
*Expansion
 1e-05,
*Specific Heat
150.,
*Material, name=Material-26
*Conductivity
150.,
*Density
7850.,
*Elastic
 2.1e+11, 0.3
*Expansion
 1e-05,
*Specific Heat
150.,
*Material, name=Material-27
*Conductivity
150.,
*Density
7850.,
*Elastic
 2.1e+11, 0.3
*Expansion
 1e-05,
*Specific Heat
150.,
*Material, name=Material-28
*Conductivity
150.,
*Density
7850.,
*Elastic
 2.1e+11, 0.3
*Expansion
 1e-05,
*Specific Heat
150.,
*Material, name=Material-29
*Conductivity
150.,
*Density
7850.,
*Elastic
 2.1e+11, 0.3
*Expansion
 1e-05,
*Specific Heat
150.,
*Material, name=Material-30
*Conductivity
150.,
*Density
7850.,
*Elastic
 2.1e+11, 0.3
*Expansion
 1e-05,
*Specific Heat
150.,
*Material, name=Material-31
*Conductivity
150.,
*Density
7850.,
*Elastic
 2.1e+11, 0.3
*Expansion
 1e-05,
*Specific Heat
150.,
*Material, name=Material-32
*Conductivity
150.,
*Density
7850.,
*Elastic
 2.1e+11, 0.3
*Expansion
 1e-05,
*Specific Heat
150.,
*Material, name=Material-33
*Conductivity
150.,
*Density
7850.,
*Elastic
 2.1e+11, 0.3
*Expansion
 1e-05,
*Specific Heat
150.,
*Material, name=Material-34
*Conductivity
150.,
*Density
7850.,
*Elastic
 2.1e+11, 0.3
*Expansion
 1e-05,
*Specific Heat
150.,
*Material, name=Material-35
*Conductivity
150.,
*Density
7850.,
*Elastic
 2.1e+11, 0.3
*Expansion
 1e-05,
*Specific Heat
150.,
*Material, name=Material-36
*Conductivity
150.,
*Density
7850.,
*Elastic
 2.1e+11, 0.3
*Expansion
 1e-05,
*Specific Heat
150.,
*Material, name=Material-37
*Conductivity
150.,
*Density
7850.,
*Elastic
 2.1e+11, 0.3
*Expansion
 1e-05,
*Specific Heat
150.,
*Material, name=Material-38
*Conductivity
150.,
*Density
7850.,
*Elastic
 2.1e+11, 0.3
*Expansion
 1e-05,
*Specific Heat
150.,
*Material, name=Material-39
*Conductivity
150.,
*Density
7850.,
*Elastic
 2.1e+11, 0.3
*Expansion
 1e-05,
*Specific Heat
150.,
*Material, name=Material-40
*Conductivity
150.,
*Density
7850.,
*Elastic
 2.1e+11, 0.3
*Expansion
 1e-05,
*Specific Heat
150.,
*Material, name=Material-41
*Conductivity
150.,
*Density
7850.,
*Elastic
 2.1e+11, 0.3
*Expansion
 1e-05,
*Specific Heat
150.,
*Material, name=Material-42
*Conductivity
150.,
*Density
7850.,
*Elastic
 2.1e+11, 0.3
*Expansion
 1e-05,
*Specific Heat
150.,
*Material, name=Material-43
*Conductivity
150.,
*Density
7850.,
*Elastic
 2.1e+11, 0.3
*Expansion
 1e-05,
*Specific Heat
150.,
*Material, name=Material-44
*Conductivity
150.,
*Density
7850.,
*Elastic
 2.1e+11, 0.3
*Expansion
 1e-05,
*Specific Heat
150.,
*Material, name=Material-45
*Conductivity
150.,
*Density
7850.,
*Elastic
 2.1e+11, 0.3
*Expansion
 1e-05,
*Specific Heat
150.,
*Material, name=Material-46
*Conductivity
150.,
*Density
7850.,
*Elastic
 2.1e+11, 0.3
*Expansion
 1e-05,
*Specific Heat
150.,
*Material, name=Material-47
*Conductivity
150.,
*Density
7850.,
*Elastic
 2.1e+11, 0.3
*Expansion
 1e-05,
*Specific Heat
150.,
*Material, name=Material-48
*Conductivity
150.,
*Density
7850.,
*Elastic
 2.1e+11, 0.3
*Expansion
 1e-05,
*Specific Heat
150.,
*Material, name=Material-49
*Conductivity
150.,
*Density
7850.,
*Elastic
 2.1e+11, 0.3
*Expansion
 1e-05,
*Specific Heat
150.,
*Material, name=Material-50
*Conductivity
150.,
*Density
7850.,
*Elastic
 2.1e+11, 0.3
*Expansion
 1e-05,
*Specific Heat
150.,
*Material, name=Material-51
*Conductivity
150.,
*Density
7850.,
*Elastic
 2.1e+11, 0.3
*Expansion
 1e-05,
*Specific Heat
150.,
*Material, name=Material-52
*Conductivity
150.,
*Density
7850.,
*Elastic
 2.1e+11, 0.3
*Expansion
 1e-05,
*Specific Heat
150.,
*Material, name=Material-53
*Conductivity
150.,
*Density
7850.,
*Elastic
 2.1e+11, 0.3
*Expansion
 1e-05,
*Specific Heat
150.,
*Material, name=Material-54
*Conductivity
150.,
*Density
7850.,
*Elastic
 2.1e+11, 0.3
*Expansion
 1e-05,
*Specific Heat
150.,
*Material, name=Material-55
*Conductivity
150.,
*Density
7850.,
*Elastic
 2.1e+11, 0.3
*Expansion
 1e-05,
*Specific Heat
150.,
*Material, name=Material-56
*Conductivity
150.,
*Density
7850.,
*Elastic
 2.1e+11, 0.3
*Expansion
 1e-05,
*Specific Heat
150.,
*Material, name=Material-57
*Conductivity
150.,
*Density
7850.,
*Elastic
 2.1e+11, 0.3
*Expansion
 1e-05,
*Specific Heat
150.,
*Material, name=Material-58
*Conductivity
150.,
*Density
7850.,
*Elastic
 2.1e+11, 0.3
*Expansion
 1e-05,
*Specific Heat
150.,
*Material, name=Material-59
*Conductivity
150.,
*Density
7850.,
*Elastic
 2.1e+11, 0.3
*Expansion
 1e-05,
*Specific Heat
150.,
*Material, name=Material-60
*Conductivity
150.,
*Density
7850.,
*Elastic
 2.1e+11, 0.3
*Expansion
 1e-05,
*Specific Heat
150.,
*Material, name=Material-61
*Conductivity
150.,
*Density
7850.,
*Elastic
 2.1e+11, 0.3
*Expansion
 1e-05,
*Specific Heat
150.,
*Material, name=Material-62
*Conductivity
150.,
*Density
7850.,
*Elastic
 2.1e+11, 0.3
*Expansion
 1e-05,
*Specific Heat
150.,
*Material, name=Material-63
*Conductivity
150.,
*Density
7850.,
*Elastic
 2.1e+11, 0.3
*Expansion
 1e-05,
*Specific Heat
150.,
*Material, name=Material-64
*Conductivity
150.,
*Density
7850.,
*Elastic
 2.1e+11, 0.3
*Expansion
 1e-05,
*Specific Heat
150.,
*Material, name=Material-65
*Conductivity
150.,
*Density
7850.,
*Elastic
 2.1e+11, 0.3
*Expansion
 1e-05,
*Specific Heat
150.,
*Material, name=Material-66
*Conductivity
150.,
*Density
7850.,
*Elastic
 2.1e+11, 0.3
*Expansion
 1e-05,
*Specific Heat
150.,
*Material, name=Material-67
*Conductivity
150.,
*Density
7850.,
*Elastic
 2.1e+11, 0.3
*Expansion
 1e-05,
*Specific Heat
150.,
*Material, name=Material-68
*Conductivity
150.,
*Density
7850.,
*Elastic
 2.1e+11, 0.3
*Expansion
 1e-05,
*Specific Heat
150.,
*Material, name=Material-69
*Conductivity
150.,
*Density
7850.,
*Elastic
 2.1e+11, 0.3
*Expansion
 1e-05,
*Specific Heat
150.,
*Material, name=Material-70
*Conductivity
150.,
*Density
7850.,
*Elastic
 2.1e+11, 0.3
*Expansion
 1e-05,
*Specific Heat
150.,
*Material, name=Material-71
*Conductivity
150.,
*Density
7850.,
*Elastic
 2.1e+11, 0.3
*Expansion
 1e-05,
*Specific Heat
150.,
*Material, name=Material-72
*Conductivity
150.,
*Density
7850.,
*Elastic
 2.1e+11, 0.3
*Expansion
 1e-05,
*Specific Heat
150.,
*Material, name=Material-73
*Conductivity
150.,
*Density
7850.,
*Elastic
 2.1e+11, 0.3
*Expansion
 1e-05,
*Specific Heat
150.,
*Material, name=Material-74
*Conductivity
150.,
*Density
7850.,
*Elastic
 2.1e+11, 0.3
*Expansion
 1e-05,
*Specific Heat
150.,
*Material, name=Material-75
*Conductivity
150.,
*Density
7850.,
*Elastic
 2.1e+11, 0.3
*Expansion
 1e-05,
*Specific Heat
150.,
*Material, name=Material-76
*Conductivity
150.,
*Density
7850.,
*Elastic
 2.1e+11, 0.3
*Expansion
 1e-05,
*Specific Heat
150.,
*Material, name=Material-77
*Conductivity
150.,
*Density
7850.,
*Elastic
 2.1e+11, 0.3
*Expansion
 1e-05,
*Specific Heat
150.,
*Material, name=Material-78
*Conductivity
150.,
*Density
7850.,
*Elastic
 2.1e+11, 0.3
*Expansion
 1e-05,
*Specific Heat
150.,
*Material, name=Material-79
*Conductivity
150.,
*Density
7850.,
*Elastic
 2.1e+11, 0.3
*Expansion
 1e-05,
*Specific Heat
150.,
*Material, name=Material-80
*Conductivity
150.,
*Density
7850.,
*Elastic
 2.1e+11, 0.3
*Expansion
 1e-05,
*Specific Heat
150.,
*Material, name=Material-81
*Conductivity
150.,
*Density
7850.,
*Elastic
 2.1e+11, 0.3
*Expansion
 1e-05,
*Specific Heat
150.,
*Material, name=Material-82
*Conductivity
150.,
*Density
7850.,
*Elastic
 2.1e+11, 0.3
*Expansion
 1e-05,
*Specific Heat
150.,
*Material, name=Material-83
*Conductivity
150.,
*Density
7850.,
*Elastic
 2.1e+11, 0.3
*Expansion
 1e-05,
*Specific Heat
150.,
*Material, name=Material-84
*Conductivity
150.,
*Density
7850.,
*Elastic
 2.1e+11, 0.3
*Expansion
 1e-05,
*Specific Heat
150.,
*Material, name=Material-85
*Conductivity
150.,
*Density
7850.,
*Elastic
 2.1e+11, 0.3
*Expansion
 1e-05,
*Specific Heat
150.,
*Material, name=Material-86
*Conductivity
150.,
*Density
7850.,
*Elastic
 2.1e+11, 0.3
*Expansion
 1e-05,
*Specific Heat
150.,
*Material, name=Material-87
*Conductivity
150.,
*Density
7850.,
*Elastic
 2.1e+11, 0.3
*Expansion
 1e-05,
*Specific Heat
150.,
*Material, name=Material-88
*Conductivity
150.,
*Density
7850.,
*Elastic
 2.1e+11, 0.3
*Expansion
 1e-05,
*Specific Heat
150.,
*Material, name=Material-89
*Conductivity
150.,
*Density
7850.,
*Elastic
 2.1e+11, 0.3
*Expansion
 1e-05,
*Specific Heat
150.,
*Material, name=Material-90
*Conductivity
150.,
*Density
7850.,
*Elastic
 2.1e+11, 0.3
*Expansion
 1e-05,
*Specific Heat
150.,
*Material, name=Material-91
*Conductivity
150.,
*Density
7850.,
*Elastic
 2.1e+11, 0.3
*Expansion
 1e-05,
*Specific Heat
150.,
*Material, name=Material-92
*Conductivity
150.,
*Density
7850.,
*Elastic
 2.1e+11, 0.3
*Expansion
 1e-05,
*Specific Heat
150.,
*Material, name=Material-93
*Conductivity
150.,
*Density
7850.,
*Elastic
 2.1e+11, 0.3
*Expansion
 1e-05,
*Specific Heat
150.,
*Material, name=Material-94
*Conductivity
150.,
*Density
7850.,
*Elastic
 2.1e+11, 0.3
*Expansion
 1e-05,
*Specific Heat
150.,
*Material, name=Material-95
*Conductivity
150.,
*Density
7850.,
*Elastic
 2.1e+11, 0.3
*Expansion
 1e-05,
*Specific Heat
150.,
*Material, name=Material-96
*Conductivity
150.,
*Density
7850.,
*Elastic
 2.1e+11, 0.3
*Expansion
 1e-05,
*Specific Heat
150.,
*Material, name=Material-97
*Conductivity
150.,
*Density
7850.,
*Elastic
 2.1e+11, 0.3
*Expansion
 1e-05,
*Specific Heat
150.,
*Material, name=Material-98
*Conductivity
150.,
*Density
7850.,
*Elastic
 2.1e+11, 0.3
*Expansion
 1e-05,
*Specific Heat
150.,
*Material, name=Material-99
*Conductivity
150.,
*Density
7850.,
*Elastic
 2.1e+11, 0.3
*Expansion
 1e-05,
*Specific Heat
150.,
*Material, name=Material-100
*Conductivity
150.,
*Density
7850.,
*Elastic
 2.1e+11, 0.3
*Expansion
 1e-05,
*Specific Heat
150.,
*Material, name=Material-101
*Conductivity
150.,
*Density
7850.,
*Elastic
 2.1e+11, 0.3
*Expansion
 1e-05,
*Specific Heat
150.,
*Material, name=Material-102
*Conductivity
150.,
*Density
7850.,
*Elastic
 2.1e+11, 0.3
*Expansion
 1e-05,
*Specific Heat
150.,
*Material, name=Material-103
*Conductivity
150.,
*Density
7850.,
*Elastic
 2.1e+11, 0.3
*Expansion
 1e-05,
*Specific Heat
150.,
*Material, name=Material-104
*Conductivity
150.,
*Density
7850.,
*Elastic
 2.1e+11, 0.3
*Expansion
 1e-05,
*Specific Heat
150.,
*Material, name=Material-105
*Conductivity
150.,
*Density
7850.,
*Elastic
 2.1e+11, 0.3
*Expansion
 1e-05,
*Specific Heat
150.,
*Material, name=Material-106
*Conductivity
150.,
*Density
7850.,
*Elastic
 2.1e+11, 0.3
*Expansion
 1e-05,
*Specific Heat
150.,
*Material, name=Material-107
*Conductivity
150.,
*Density
7850.,
*Elastic
 2.1e+11, 0.3
*Expansion
 1e-05,
*Specific Heat
150.,
*Material, name=Material-108
*Conductivity
150.,
*Density
7850.,
*Elastic
 2.1e+11, 0.3
*Expansion
 1e-05,
*Specific Heat
150.,
*Material, name=Material-109
*Conductivity
150.,
*Density
7850.,
*Elastic
 2.1e+11, 0.3
*Expansion
 1e-05,
*Specific Heat
150.,
*Material, name=Material-110
*Conductivity
150.,
*Density
7850.,
*Elastic
 2.1e+11, 0.3
*Expansion
 1e-05,
*Specific Heat
150.,
*Material, name=Material-111
*Conductivity
150.,
*Density
7850.,
*Elastic
 2.1e+11, 0.3
*Expansion
 1e-05,
*Specific Heat
150.,
*Material, name=Material-112
*Conductivity
150.,
*Density
7850.,
*Elastic
 2.1e+11, 0.3
*Expansion
 1e-05,
*Specific Heat
150.,
*Material, name=Material-113
*Conductivity
150.,
*Density
7850.,
*Elastic
 2.1e+11, 0.3
*Expansion
 1e-05,
*Specific Heat
150.,
*Material, name=Material-114
*Conductivity
150.,
*Density
7850.,
*Elastic
 2.1e+11, 0.3
*Expansion
 1e-05,
*Specific Heat
150.,
*Material, name=Material-115
*Conductivity
150.,
*Density
7850.,
*Elastic
 2.1e+11, 0.3
*Expansion
 1e-05,
*Specific Heat
150.,
*Material, name=Material-116
*Conductivity
150.,
*Density
7850.,
*Elastic
 2.1e+11, 0.3
*Expansion
 1e-05,
*Specific Heat
150.,
*Material, name=Material-117
*Conductivity
150.,
*Density
7850.,
*Elastic
 2.1e+11, 0.3
*Expansion
 1e-05,
*Specific Heat
150.,
*Material, name=Material-118
*Conductivity
150.,
*Density
7850.,
*Elastic
 2.1e+11, 0.3
*Expansion
 1e-05,
*Specific Heat
150.,
*Material, name=Material-119
*Conductivity
150.,
*Density
7850.,
*Elastic
 2.1e+11, 0.3
*Expansion
 1e-05,
*Specific Heat
150.,
*Material, name=Material-120
*Conductivity
150.,
*Density
7850.,
*Elastic
 2.1e+11, 0.3
*Expansion
 1e-05,
*Specific Heat
150.,
*Material, name=Material-121
*Conductivity
150.,
*Density
7850.,
*Elastic
 2.1e+11, 0.3
*Expansion
 1e-05,
*Specific Heat
150.,
*Material, name=Material-122
*Conductivity
150.,
*Density
7850.,
*Elastic
 2.1e+11, 0.3
*Expansion
 1e-05,
*Specific Heat
150.,
*Material, name=Material-123
*Conductivity
150.,
*Density
7850.,
*Elastic
 2.1e+11, 0.3
*Expansion
 1e-05,
*Specific Heat
150.,
*Material, name=Material-124
*Conductivity
150.,
*Density
7850.,
*Elastic
 2.1e+11, 0.3
*Expansion
 1e-05,
*Specific Heat
150.,
*Material, name=Material-125
*Conductivity
150.,
*Density
7850.,
*Elastic
 2.1e+11, 0.3
*Expansion
 1e-05,
*Specific Heat
150.,
*Material, name=Material-126
*Conductivity
150.,
*Density
7850.,
*Elastic
 2.1e+11, 0.3
*Expansion
 1e-05,
*Specific Heat
150.,
*Material, name=Material-127
*Conductivity
150.,
*Density
7850.,
*Elastic
 2.1e+11, 0.3
*Expansion
 1e-05,
*Specific Heat
150.,
*Material, name=Material-128
*Conductivity
150.,
*Density
7850.,
*Elastic
 2.1e+11, 0.3
*Expansion
 1e-05,
*Specific Heat
150.,
*Material, name=Material-129
*Conductivity
150.,
*Density
7850.,
*Elastic
 2.1e+11, 0.3
*Expansion
 1e-05,
*Specific Heat
150.,
*Material, name=Material-130
*Conductivity
150.,
*Density
7850.,
*Elastic
 2.1e+11, 0.3
*Expansion
 1e-05,
*Specific Heat
150.,
*Material, name=Material-131
*Conductivity
150.,
*Density
7850.,
*Elastic
 2.1e+11, 0.3
*Expansion
 1e-05,
*Specific Heat
150.,
*Material, name=Material-132
*Conductivity
150.,
*Density
7850.,
*Elastic
 2.1e+11, 0.3
*Expansion
 1e-05,
*Specific Heat
150.,
*Material, name=Material-133
*Conductivity
150.,
*Density
7850.,
*Elastic
 2.1e+11, 0.3
*Expansion
 1e-05,
*Specific Heat
150.,
*Material, name=Material-134
*Conductivity
150.,
*Density
7850.,
*Elastic
 2.1e+11, 0.3
*Expansion
 1e-05,
*Specific Heat
150.,
*Material, name=Material-135
*Conductivity
150.,
*Density
7850.,
*Elastic
 2.1e+11, 0.3
*Expansion
 1e-05,
*Specific Heat
150.,
*Material, name=Material-136
*Conductivity
150.,
*Density
7850.,
*Elastic
 2.1e+11, 0.3
*Expansion
 1e-05,
*Specific Heat
150.,
*Material, name=Material-137
*Conductivity
150.,
*Density
7850.,
*Elastic
 2.1e+11, 0.3
*Expansion
 1e-05,
*Specific Heat
150.,
*Material, name=Material-138
*Conductivity
150.,
*Density
7850.,
*Elastic
 2.1e+11, 0.3
*Expansion
 1e-05,
*Specific Heat
150.,
*Material, name=Material-139
*Conductivity
150.,
*Density
7850.,
*Elastic
 2.1e+11, 0.3
*Expansion
 1e-05,
*Specific Heat
150.,
*Material, name=Material-140
*Conductivity
150.,
*Density
7850.,
*Elastic
 2.1e+11, 0.3
*Expansion
 1e-05,
*Specific Heat
150.,
*Material, name=Material-141
*Conductivity
150.,
*Density
7850.,
*Elastic
 2.1e+11, 0.3
*Expansion
 1e-05,
*Specific Heat
150.,
*Material, name=Material-142
*Conductivity
150.,
*Density
7850.,
*Elastic
 2.1e+11, 0.3
*Expansion
 1e-05,
*Specific Heat
150.,
*Material, name=Material-143
*Conductivity
150.,
*Density
7850.,
*Elastic
 2.1e+11, 0.3
*Expansion
 1e-05,
*Specific Heat
150.,
*Material, name=Material-144
*Conductivity
150.,
*Density
7850.,
*Elastic
 2.1e+11, 0.3
*Expansion
 1e-05,
*Specific Heat
150.,
*Material, name=Material-145
*Conductivity
150.,
*Density
7850.,
*Elastic
 2.1e+11, 0.3
*Expansion
 1e-05,
*Specific Heat
150.,
*Material, name=Material-146
*Conductivity
150.,
*Density
7850.,
*Elastic
 2.1e+11, 0.3
*Expansion
 1e-05,
*Specific Heat
150.,
*Material, name=Material-147
*Conductivity
150.,
*Density
7850.,
*Elastic
 2.1e+11, 0.3
*Expansion
 1e-05,
*Specific Heat
150.,
*Material, name=Material-148
*Conductivity
150.,
*Density
7850.,
*Elastic
 2.1e+11, 0.3
*Expansion
 1e-05,
*Specific Heat
150.,
*Material, name=Material-149
*Conductivity
150.,
*Density
7850.,
*Elastic
 2.1e+11, 0.3
*Expansion
 1e-05,
*Specific Heat
150.,
*Material, name=Material-150
*Conductivity
150.,
*Density
7850.,
*Elastic
 2.1e+11, 0.3
*Expansion
 1e-05,
*Specific Heat
150.,
*Material, name=Material-151
*Conductivity
150.,
*Density
7850.,
*Elastic
 2.1e+11, 0.3
*Expansion
 1e-05,
*Specific Heat
150.,
*Material, name=Material-152
*Conductivity
150.,
*Density
7850.,
*Elastic
 2.1e+11, 0.3
*Expansion
 1e-05,
*Specific Heat
150.,
*Material, name=Material-153
*Conductivity
150.,
*Density
7850.,
*Elastic
 2.1e+11, 0.3
*Expansion
 1e-05,
*Specific Heat
150.,
*Material, name=Material-154
*Conductivity
150.,
*Density
7850.,
*Elastic
 2.1e+11, 0.3
*Expansion
 1e-05,
*Specific Heat
150.,
*Material, name=Material-155
*Conductivity
150.,
*Density
7850.,
*Elastic
 2.1e+11, 0.3
*Expansion
 1e-05,
*Specific Heat
150.,
*Material, name=Material-156
*Conductivity
150.,
*Density
7850.,
*Elastic
 2.1e+11, 0.3
*Expansion
 1e-05,
*Specific Heat
150.,
*Material, name=Material-157
*Conductivity
150.,
*Density
7850.,
*Elastic
 2.1e+11, 0.3
*Expansion
 1e-05,
*Specific Heat
150.,
*Material, name=Material-158
*Conductivity
150.,
*Density
7850.,
*Elastic
 2.1e+11, 0.3
*Expansion
 1e-05,
*Specific Heat
150.,
*Material, name=Material-159
*Conductivity
150.,
*Density
7850.,
*Elastic
 2.1e+11, 0.3
*Expansion
 1e-05,
*Specific Heat
150.,
*Material, name=Material-160
*Conductivity
150.,
*Density
7850.,
*Elastic
 2.1e+11, 0.3
*Expansion
 1e-05,
*Specific Heat
150.,
*Material, name=Material-161
*Conductivity
150.,
*Density
7850.,
*Elastic
 2.1e+11, 0.3
*Expansion
 1e-05,
*Specific Heat
150.,
*Material, name=Material-162
*Conductivity
150.,
*Density
7850.,
*Elastic
 2.1e+11, 0.3
*Expansion
 1e-05,
*Specific Heat
150.,
*Material, name=Material-163
*Conductivity
150.,
*Density
7850.,
*Elastic
 2.1e+11, 0.3
*Expansion
 1e-05,
*Specific Heat
150.,
*Material, name=Material-164
*Conductivity
150.,
*Density
7850.,
*Elastic
 2.1e+11, 0.3
*Expansion
 1e-05,
*Specific Heat
150.,
*Material, name=Material-165
*Conductivity
150.,
*Density
7850.,
*Elastic
 2.1e+11, 0.3
*Expansion
 1e-05,
*Specific Heat
150.,
*Material, name=Material-166
*Conductivity
150.,
*Density
7850.,
*Elastic
 2.1e+11, 0.3
*Expansion
 1e-05,
*Specific Heat
150.,
*Material, name=Material-167
*Conductivity
150.,
*Density
7850.,
*Elastic
 2.1e+11, 0.3
*Expansion
 1e-05,
*Specific Heat
150.,
*Material, name=Material-168
*Conductivity
150.,
*Density
7850.,
*Elastic
 2.1e+11, 0.3
*Expansion
 1e-05,
*Specific Heat
150.,
*Material, name=Material-169
*Conductivity
150.,
*Density
7850.,
*Elastic
 2.1e+11, 0.3
*Expansion
 1e-05,
*Specific Heat
150.,
*Material, name=Material-170
*Conductivity
150.,
*Density
7850.,
*Elastic
 2.1e+11, 0.3
*Expansion
 1e-05,
*Specific Heat
150.,
*Material, name=Material-171
*Conductivity
150.,
*Density
7850.,
*Elastic
 2.1e+11, 0.3
*Expansion
 1e-05,
*Specific Heat
150.,
*Material, name=Material-172
*Conductivity
150.,
*Density
7850.,
*Elastic
 2.1e+11, 0.3
*Expansion
 1e-05,
*Specific Heat
150.,
*Material, name=Material-173
*Conductivity
150.,
*Density
7850.,
*Elastic
 2.1e+11, 0.3
*Expansion
 1e-05,
*Specific Heat
150.,
*Material, name=Material-174
*Conductivity
150.,
*Density
7850.,
*Elastic
 2.1e+11, 0.3
*Expansion
 1e-05,
*Specific Heat
150.,
*Material, name=Material-175
*Conductivity
150.,
*Density
7850.,
*Elastic
 2.1e+11, 0.3
*Expansion
 1e-05,
*Specific Heat
150.,
*Material, name=Material-176
*Conductivity
150.,
*Density
7850.,
*Elastic
 2.1e+11, 0.3
*Expansion
 1e-05,
*Specific Heat
150.,
*Material, name=Material-177
*Conductivity
150.,
*Density
7850.,
*Elastic
 2.1e+11, 0.3
*Expansion
 1e-05,
*Specific Heat
150.,
*Material, name=Material-178
*Conductivity
150.,
*Density
7850.,
*Elastic
 2.1e+11, 0.3
*Expansion
 1e-05,
*Specific Heat
150.,
*Material, name=Material-179
*Conductivity
150.,
*Density
7850.,
*Elastic
 2.1e+11, 0.3
*Expansion
 1e-05,
*Specific Heat
150.,
*Material, name=Material-180
*Conductivity
150.,
*Density
7850.,
*Elastic
 2.1e+11, 0.3
*Expansion
 1e-05,
*Specific Heat
150.,
*Material, name=Material-181
*Conductivity
150.,
*Density
7850.,
*Elastic
 2.1e+11, 0.3
*Expansion
 1e-05,
*Specific Heat
150.,
*Material, name=Material-182
*Conductivity
150.,
*Density
7850.,
*Elastic
 2.1e+11, 0.3
*Expansion
 1e-05,
*Specific Heat
150.,
*Material, name=Material-183
*Conductivity
150.,
*Density
7850.,
*Elastic
 2.1e+11, 0.3
*Expansion
 1e-05,
*Specific Heat
150.,
*Material, name=Material-184
*Conductivity
150.,
*Density
7850.,
*Elastic
 2.1e+11, 0.3
*Expansion
 1e-05,
*Specific Heat
150.,
** 
** BOUNDARY CONDITIONS
** 
** Name: BC-1 Type: Symmetry/Antisymmetry/Encastre
*Boundary
_PickedSet205, ENCASTRE
** ----------------------------------------------------------------
** 
** STEP: Step-1
** 
*Step, name=Step-1, nlgeom=NO
*Coupled Temperature-displacement, creep=none, deltmx=10.
0.1, 0.1, 1e-06, 0.1
** 
** LOADS
** 
** Name: Load-1   Type: Concentrated force
*Cload, amplitude=Amp-node1
_PickedSet210, 1, 1.
** Name: Load-2   Type: Concentrated force
*Cload, amplitude=Amp-node2
_PickedSet211, 1, 1.
** Name: Load-3   Type: Concentrated force
*Cload, amplitude=Amp-node3
_PickedSet212, 1, -1.
** Name: Load-4   Type: Concentrated force
*Cload, amplitude=Amp-node4
_PickedSet213, 1, -1.
** 
** OUTPUT REQUESTS
** 
*Restart, write, frequency=0
** 
** FIELD OUTPUT: F-Output-1
** 
*Output, field, variable=PRESELECT, number interval=100
** 
** HISTORY OUTPUT: H-Output-1
** 
*Output, history, variable=PRESELECT
*End Step
